# ORCA input file
# SCF done       -217.592622677384          0.000806429824
! CAM-B3LYP def2-SVP def2/J RIJCOSX Grid4 TightSCF
%maxcore 5000
%tddft
    Mode sTDDFT
    Ethresh 5.0
    maxcore 5000
end

%pal
  nprocs 6
  end
* xyz 0 1
   C       -0.91853        -0.36788        -1.84570
   C       -1.54328        -1.32226        -1.08498
   C       -1.19723        -2.69055        -1.09718
   N       -0.96710        -3.81460        -1.05897
   C       -2.58625        -1.10881        -0.15801
   N       -3.42380        -1.04307         0.62620
   C        0.21016        -0.62070        -2.73146
   C        0.68347         0.61933        -3.21904
   C        1.75062         0.72342        -4.07775
   C        2.38109        -0.45825        -4.47921
   C        1.89712        -1.69622        -3.99268
   C        0.81948        -1.79952        -3.12259
   S        2.81485        -3.03195        -4.62072
   C        3.82334        -1.92401        -5.51293
   C        3.49182        -0.62107        -5.35166
  Br        5.21751        -2.59235        -6.57471
   C       -0.13861         1.71780        -2.67296
   O        0.03949         2.89534        -2.90150
   C       -1.19430         1.06569        -1.85932
   C       -2.32497         1.59652        -1.30725
   C       -2.80861         2.92950        -1.11789
   C       -4.15200         3.04747        -0.69394
   C       -4.70036         4.28311        -0.47134
   C       -3.89884         5.43581        -0.59297
   C       -2.56993         5.33590        -0.98609
   C       -2.03675         4.09500        -1.25785
   C       -4.68767         6.58650        -0.22912
   C       -5.98431         6.15731         0.10838
   C       -6.09581         4.64918        -0.00368
   C       -7.18336         4.32537        -1.04862
   C       -7.39855         2.84991        -1.35947
   C       -6.32037         3.97301         1.36630
   C       -7.64573         4.27284         2.05385
   C       -6.94930         7.08333         0.42386
   C       -6.62315         8.44813         0.48438
   C       -5.31623         8.85060         0.17480
   C       -4.35540         7.93512        -0.19513
   C       -7.65420         9.38504         0.85818
   C       -7.46588        10.65529         1.26934
   C       -8.50713        11.54583         1.65011
   C       -8.35035        12.80567         2.20344
   C       -9.56468        13.42034         2.48462
   C      -10.66238        12.63454         2.13061
   S      -10.20016        11.12245         1.46363
   C      -11.84939        13.33246         2.44573
   C      -11.51408        14.56264         3.01967
   C      -10.02332        14.71784         3.08113
   C      -12.62427        15.31471         3.37627
   C      -13.81563        14.67574         3.06624
   S      -13.54349        13.11081         2.32227
   C      -15.15273        15.11318         3.25895
   C      -15.51222        16.21803         3.94536
   N      -16.82159        16.60204         4.07243
   C      -17.27918        17.68013         4.73102
   S      -16.20519        18.72481         5.60111
   C      -17.54876        19.76556         5.98491
   N      -17.27916        20.88786         6.76855
   O      -18.20816        21.62158         7.05456
   O      -16.11796        21.04428         7.11412
   C      -18.73687        19.33869         5.46187
   C      -18.61802        18.13223         4.74573
   C      -19.67011        17.45187         4.06469
   C      -20.86115        17.99965         3.71001
   C      -21.89549        17.34169         3.00477
   C      -21.91239        16.19273         2.25982
   C      -20.89965        15.31452         1.72804
   C      -19.60425        15.63523         1.38976
   C      -18.62650        14.70429         0.99500
   N      -17.74591        13.99859         0.77527
   C      -19.07873        16.94003         1.41252
   N      -18.58390        17.97650         1.40283
   C      -21.54453        14.04976         1.38626
   C      -22.94820        14.21304         1.49070
   C      -23.23902        15.57663         1.97780
   O      -24.32348        16.08317         2.15154
   C      -23.83362        13.21448         1.16885
   C      -23.30885        11.99234         0.73298
   C      -21.90518        11.83460         0.64487
   C      -21.00939        12.84860         0.96156
   S      -21.47392        10.24623         0.08838
   C      -23.16163         9.82278        -0.02344
   C      -24.00599        10.81748         0.34023
  Br      -23.64770         8.10888        -0.60945
   H        2.08697         1.68666        -4.42815
   H        0.48746        -2.76720        -2.78643
   H        4.00719         0.19287        -5.82794
   H       -3.02740         0.85709        -0.93773
   H       -4.72930         2.14728        -0.54479
   H       -1.95694         6.22008        -1.07284
   H       -1.01003         4.01703        -1.56956
   H       -6.91548         4.84503        -1.97284
   H       -8.12332         4.75469        -0.69839
   H       -6.52566         2.42075        -1.84289
   H       -8.24103         2.74674        -2.04040
   H       -7.62123         2.28125        -0.46082
   H       -5.50473         4.28717         2.02350
   H       -6.22665         2.89463         1.23029
   H       -7.72087         5.32411         2.31703
   H       -7.71039         3.69280         2.97210
   H       -8.49030         4.00245         1.42580
   H       -7.96525         6.78489         0.63472
   H       -5.06553         9.89988         0.19448
   H       -3.36088         8.26100        -0.46050
   H       -8.66812         9.00291         0.83381
   H       -6.46760        11.06145         1.36095
   H       -7.38378        13.23703         2.39345
   H       -9.66597        14.84436         4.10512
   H       -9.68132        15.57753         2.50107
   H      -12.58208        16.28922         3.82665
   H      -15.92149        14.49674         2.80985
   H      -14.79508        16.85959         4.43242
   H      -17.49816        16.04046         3.57001
   H      -19.65590        19.87196         5.62077
   H      -19.49770        16.40711         3.83965
   H      -21.07202        19.01730         4.00598
   H      -22.87904        17.79451         3.09951
   H      -24.89801        13.37096         1.24558
   H      -19.94833        12.68035         0.87742
   H      -25.07688        10.72839         0.33118
*
