# ORCA input file
# SCF done       -191.567760291951          0.000604664311
! CAM-B3LYP def2-SVP def2/J RIJCOSX Grid4 TightSCF
%maxcore 5000
%tddft
    Mode sTDDFT
    Ethresh 5.0
    maxcore 5000
end

%pal
  nprocs 6
  end
* xyz 0 1
   C        3.06363        16.22922        -3.75252
   C        1.93992        16.37275        -4.52122
   C        1.70098        17.47332        -5.37128
   N        1.45620        18.34114        -6.08134
   C        0.85406        15.47061        -4.53196
   N       -0.07678        14.79982        -4.56350
   C        4.15129        17.19016        -3.63001
   C        5.04266        16.74528        -2.61044
   C        6.15744        17.45587        -2.26761
   C        6.43713        18.66586        -2.94076
   C        5.55399        19.11425        -3.96583
   C        4.40824        18.35727        -4.30019
   C        5.84539        20.32133        -4.63337
   C        6.95416        21.05267        -4.30461
   C        7.82263        20.61073        -3.29513
   C        7.56974        19.44301        -2.62763
   C        4.56562        15.46696        -2.05950
   O        5.09036        14.79585        -1.19856
   C        3.33898        15.13357        -2.83867
   C        2.72566        13.92283        -2.80786
   C        2.94138        12.89213        -1.85358
   C        3.20292        13.00121        -0.40826
   N        3.25500        11.85543         0.20635
   C        3.05071        10.90595        -0.74814
   C        2.85510        11.53495        -2.06136
   C        2.60891        10.53557        -3.07172
   S        2.30382        10.80412        -4.66371
   C        2.62953         9.29755        -2.34191
   C        2.89347         9.55095        -0.91722
   N        2.86068         8.38747        -0.20564
   C        2.57817         7.45555        -1.06676
   C        2.41155         7.93626        -2.43976
   C        2.11802         7.14700        -3.56666
   S        1.64127         5.42688        -3.38538
   C        1.49888         5.36588        -5.08752
   C        1.82460         6.61495        -5.65619
   N        2.15214         7.56466        -4.80269
   C        1.72206         6.56638        -7.14492
   C        1.29629         5.14485        -7.35885
   C        1.16826         4.47870        -6.12702
   S        0.65430         2.85637        -6.31099
   C        0.61986         3.05166        -8.05617
   C        0.99594         4.33747        -8.44009
   C        0.21704         1.95866        -8.85435
   C        0.25912         1.93537       -10.21471
   C       -0.18566         0.85678       -11.01027
   C       -0.90718        -0.35353       -10.58308
   N       -1.22786        -1.15934       -11.54868
   C       -0.74868        -0.57627       -12.69063
   C       -0.08529         0.69657       -12.37856
   C        0.42607         1.29617       -13.57668
   S        1.13792         2.76931       -13.73415
   C        0.10233         0.34349       -14.61583
   C       -0.67335        -0.77451       -14.04355
   N       -1.05761        -1.64144       -15.02247
   C       -0.59544        -1.14602       -16.13106
   C        0.18379         0.08900       -15.96224
   C        0.82289         0.78861       -17.02761
   C        2.04513         1.37333       -16.95687
   C        2.69294         2.16437       -17.99256
   C        2.08780         2.70123       -19.09696
   C        2.75498         3.48967       -20.05891
   N        3.24290         4.12583       -20.88018
   C        0.72088         2.56178       -19.41907
   N       -0.38032         2.49670       -19.73720
   C        4.08417         2.35121       -17.60516
   C        4.29054         1.74095       -16.33505
   C        3.03845         1.12564       -15.86831
   O        2.88103         0.48753       -14.85156
   C        5.50662         1.75782       -15.71463
   C        6.59460         2.39666       -16.34928
   C        6.39894         3.00398       -17.62377
   C        5.12775         2.97246       -18.24057
   C        7.49483         3.62989       -18.25262
   C        8.72457         3.65571       -17.65333
   C        8.91558         3.05857       -16.39809
   C        7.87307         2.44381       -15.75936
   H        6.81749        17.09858        -1.49111
   H        3.76273        18.71807        -5.08531
   H        5.17315        20.65781        -5.40892
   H        7.16822        21.97640        -4.82084
   H        8.69313        21.20016        -3.04927
   H        8.23500        19.09777        -1.84985
   H        2.03059        13.66164        -3.59921
   H        3.30524        13.91934         0.13886
   H        2.50044         6.42593        -0.76219
   H        2.67656         6.79537        -7.62227
   H        0.98852         7.28199        -7.52109
   H        1.02881         4.65327        -9.46639
   H       -0.13371         1.08727        -8.31831
   H        0.66246         2.77939       -10.75705
   H       -1.18492        -0.59157        -9.57110
   H       -0.76236        -1.64178       -17.07154
   H        0.27981         0.79579       -17.96564
   H        5.63503         1.28858       -14.75046
   H        5.01349         3.43566       -19.20780
   H        7.34279         4.08941       -19.21818
   H        9.55778         4.13661       -18.14337
   H        9.89306         3.08753       -15.94036
   H        8.01384         1.98192       -14.79308
*
