# ORCA input file
# SCF done       -199.699870938277          0.000970185856
! CAM-B3LYP def2-SVP def2/J RIJCOSX Grid4 TightSCF
%maxcore 5000
%tddft
    Mode sTDDFT
    Ethresh 5.0
    maxcore 5000
end

%pal
  nprocs 6
  end
* xyz 0 1
   C       -3.38106         4.77975        -0.66281
   C       -2.91593         6.03943        -0.91901
   C       -1.61010         6.32596        -1.37378
   N       -0.56442         6.61945        -1.74320
   C       -3.68261         7.21932        -0.80473
   N       -4.25939         8.21049        -0.75791
   C       -2.64716         3.53931        -0.86239
   C       -3.52192         2.44316        -0.65377
   C       -3.11704         1.13699        -0.79141
   C       -1.78459         0.89922        -1.14210
   C       -0.91486         2.00043        -1.33940
   C       -1.32450         3.31999        -1.20682
   S        0.68831         1.48098        -1.76083
   C        0.17714        -0.18364        -1.67032
   C       -1.12705        -0.34487        -1.34054
  Br        1.41228        -1.54992        -2.01903
   C       -4.86005         2.94141        -0.28446
   O       -5.85876         2.28563        -0.09966
   C       -4.72195         4.42502        -0.20709
   C       -5.69462         5.24822         0.23104
   C       -6.97740         4.78324         0.75025
   C       -7.05252         4.17182         1.96069
   S       -8.65497         3.82597         2.47892
   C       -9.27701         4.49251         1.00447
   C       -8.27317         4.96809         0.15083
   C       -8.62511         5.47015        -1.12287
   C       -7.50658         5.86518        -2.05134
   C       -7.04411         4.66587        -2.88200
   C       -9.95588         5.52107        -1.51319
   C      -10.31316         6.02025        -2.89007
   C      -10.78771         7.47408        -2.84943
   C      -10.98187         5.12048        -0.61527
   C      -12.42886         5.16173        -0.71705
   C      -13.02727         4.66333         0.40867
   S      -11.95249         4.12090         1.62249
   C      -10.60777         4.59434         0.63320
   C      -13.25035         5.63705        -1.80772
   C      -14.48223         6.15682        -1.63060
   C      -15.39549         6.59462        -2.63808
   S      -16.79237         7.47825        -2.09756
   C      -17.37529         7.63302        -3.71802
   C      -16.51988         7.03518        -4.63007
   C      -15.40620         6.43804        -4.02010
   C      -14.37731         5.69209        -4.81334
   C      -14.88928         5.36403        -6.22475
   C      -13.78744         4.86241        -7.01483
   N      -12.88733         4.48673        -7.60958
   C      -15.49429         6.62759        -6.86948
   C      -15.82552         6.37699        -8.25431
   N      -16.11116         6.15938        -9.33848
   C      -16.76118         7.02909        -6.10345
   C      -18.58876         8.33409        -3.95762
   N      -19.11408         8.36326        -5.19935
   C      -20.14494         9.14544        -5.36903
   C      -20.68576         9.88355        -4.29479
   N      -20.22626         9.62880        -3.06008
   N      -19.19304         8.89206        -2.90287
   C      -21.75842        10.82362        -4.46436
   C      -21.91788        11.97792        -3.78160
   C      -21.05876        12.65612        -2.82548
   C      -19.69117        12.65453        -2.81017
   C      -18.91491        13.40327        -1.90058
   N      -18.24021        13.99454        -1.18512
   C      -18.88699        11.98187        -3.75296
   N      -18.18154        11.50044        -4.52054
   C      -21.91551        13.53158        -2.03630
   C      -23.19925        13.58620        -2.63965
   C      -23.22934        12.69031        -3.81041
   O      -24.12628        12.51878        -4.60073
   C      -24.21467        14.36772        -2.14247
   C      -23.95521        15.12257        -0.99409
   C      -22.67538        15.04929        -0.39098
   C      -21.64631        14.26433        -0.89546
   S      -22.57701        16.05378         1.02214
   C      -24.23015        16.55646         0.78575
   C      -24.82812        15.99989        -0.29472
  Br      -25.00955        17.76660         1.98649
   H       -3.80822         0.32436        -0.63173
   H       -0.62522         4.12387        -1.36545
   H       -1.60660        -1.30143        -1.24123
   H       -5.51789         6.31532         0.30147
   H       -6.23209         3.92666         2.60695
   H       -6.66414         6.22514        -1.46135
   H       -7.80059         6.68538        -2.70490
   H       -6.76338         3.84153        -2.23053
   H       -6.18552         4.93757        -3.49287
   H       -7.83762         4.31568        -3.53782
   H      -11.07617         5.37368        -3.32214
   H       -9.45568         5.94996        -3.55453
   H      -11.65106         7.58808        -2.19821
   H      -11.05599         7.81392        -3.84765
   H       -9.99337         8.11393        -2.47199
   H      -14.08091         4.54857         0.57172
   H      -12.84796         5.56029        -2.79902
   H      -14.84309         6.31038        -0.62226
   H      -14.11984         4.75938        -4.30473
   H      -13.46626         6.29587        -4.89767
   H      -15.66121         4.58629        -6.17336
   H      -14.75706         7.43909        -6.83158
   H      -17.57267         6.33073        -6.33301
   H      -17.10270         8.01574        -6.42277
   H      -20.56330         9.20022        -6.36496
   H      -22.53436        10.56448        -5.17598
   H      -25.17899        14.39698        -2.62502
   H      -20.69025        14.23162        -0.39963
   H      -25.84288        16.19846        -0.58766
*
