# ORCA input file
# SCF done       -246.715341853566          0.000594886326
! CAM-B3LYP def2-SVP def2/J RIJCOSX Grid4 TightSCF
%maxcore 5000
%tddft
    Mode sTDDFT
    Ethresh 5.0
    maxcore 5000
end

%pal
  nprocs 6
  end
* xyz 0 1
   C       -2.18333         0.85702        -2.89293
   C       -1.01060         0.36752        -3.40650
   C       -0.85848        -0.94259        -3.90879
   N       -0.67605        -1.99515        -4.32804
   C        0.18134         1.10765        -3.55651
   N        1.16475         1.67264        -3.74082
   C       -3.45967         0.15482        -2.84997
   C       -4.46378         1.06037        -2.39498
   C       -5.77270         0.68908        -2.27796
   C       -6.14548        -0.63145        -2.61367
   C       -5.14728        -1.54590        -3.06017
   C       -3.79981        -1.13236        -3.17237
   C       -5.53096        -2.86121        -3.39099
   C       -6.83766        -3.25556        -3.28930
   C       -7.81940        -2.35438        -2.85113
   C       -7.48074        -1.07011        -2.51988
   C       -3.84865         2.36191        -2.11002
   O       -4.40495         3.37439        -1.72624
   C       -2.40796         2.19571        -2.37143
   C       -1.42813         3.10506        -2.10066
   C       -1.52282         4.44203        -1.66091
   S       -2.98546         5.33938        -1.41649
   C       -2.09539         6.78901        -1.06827
   C       -0.71547         6.58652        -1.17286
   C       -0.39629         5.26131        -1.46399
   C        1.01281         4.73841        -1.44001
   N        1.06397         3.86000        -0.21483
   O        0.95271         2.67459        -0.38610
   O        1.16522         4.41222         0.84989
   C        2.05923         5.84428        -1.30199
   C        1.57770         7.14562        -1.92419
   C        0.34173         7.64943        -1.16725
   N       -0.11361         8.85591        -1.91087
   O       -0.70668         8.68211        -2.94213
   O        0.19134         9.92749        -1.44356
   C       -2.85793         7.92829        -0.70880
   C       -2.41121         9.05634        -0.09071
   C       -3.26387        10.14827         0.18845
   N       -2.82286        11.34933         0.67755
   C       -1.45525        11.71902         0.96136
   C       -1.00668        11.21919         2.33248
   C       -3.88039        12.26478         0.86220
   O       -3.73774        13.39817         1.26425
   C       -5.05546        11.52246         0.45386
   C       -4.65662        10.24716         0.03196
   C       -5.85151         9.53350        -0.38000
   O       -6.00971         8.41062        -0.81036
   N       -6.90382        10.44590        -0.17426
   C       -8.25714        10.07022        -0.51792
   C       -8.68662        10.65553        -1.86015
   C       -6.44838        11.64502         0.31993
   C       -7.11126        12.83963         0.63975
   C       -8.44210        13.15917         0.55566
   C       -8.95326        14.43350         0.84710
   C      -10.25965        14.73945         1.24467
   N      -11.36398        13.87779         1.30526
   O      -12.42139        14.34344         1.69351
   O      -11.22137        12.71230         0.95748
   C      -10.31409        16.10394         1.66404
   C       -9.06987        16.65165         1.55444
   C       -8.18423        15.68516         0.98682
   C       -6.92577        15.93359         0.46364
   C       -6.39123        15.36472        -0.73920
   C       -5.26306        16.04168        -1.08549
   C       -4.98792        17.02112        -0.07795
   N       -3.83791        17.83248        -0.10454
   O       -3.64087        18.60089         0.82176
   O       -3.10562        17.72670        -1.07237
   C       -5.98294        16.97642         0.89702
   C       -5.99829        17.65092         2.13728
   C       -6.66315        17.20034         3.24148
   C       -6.69495        17.91753         4.45439
   C       -7.38178        17.50087         5.56267
   C       -7.44708        18.16803         6.84905
   C       -7.02335        19.43978         7.13736
   C       -7.12478        20.03510         8.41248
   N       -7.17576        20.57536         9.42407
   C       -6.47146        20.34911         6.21023
   N       -6.03859        21.15334         5.51451
   C       -8.10442        17.26322         7.78576
   C       -8.53136        16.10478         7.07512
   C       -8.13623        16.22090         5.66292
   O       -8.38008        15.42842         4.77489
   C       -9.19488        15.08320         7.69216
   C       -9.45721        15.16950         9.07743
   C       -9.02198        16.31913         9.79824
   C       -8.34421        17.36498         9.13037
   C       -9.28087        16.39119        11.18195
   C       -9.93917        15.37801        11.82446
   C      -10.36938        14.24772        11.11346
   C      -10.13392        14.14572         9.76914
   H       -6.51421         1.39546        -1.93556
   H       -3.06804        -1.84879        -3.51028
   H       -4.77204        -3.55124        -3.72914
   H       -7.12175        -4.26477        -3.54664
   H       -8.84528        -2.68244        -2.77739
   H       -8.23217        -0.37179        -2.18191
   H       -0.41809         2.75383        -2.25212
   H        1.21667         4.08869        -2.29597
   H        2.98885         5.53051        -1.77632
   H        2.25372         6.01150        -0.23917
   H        1.30973         6.98428        -2.97124
   H        2.37020         7.89384        -1.87672
   H        0.62002         7.96939        -0.15704
   H       -3.91719         7.84846        -0.92292
   H       -1.38519         9.15706         0.22361
   H       -1.42789        12.81177         0.94795
   H       -0.80248        11.34256         0.16923
   H       -1.63227        11.65179         3.10942
   H        0.02228        11.51821         2.50949
   H       -1.07373        10.13540         2.40072
   H       -8.93767        10.36842         0.28209
   H       -8.25494         8.97828        -0.58390
   H       -8.62238        11.74102        -1.85647
   H       -9.71357        10.37021        -2.06802
   H       -8.04984        10.27259        -2.65404
   H       -6.42955        13.59181         1.01720
   H       -9.18340        12.40553         0.33475
   H      -11.21038        16.58536         2.00685
   H       -8.80977        17.67481         1.74412
   H       -6.88316        14.61120        -1.32309
   H       -4.65042        15.89472        -1.95440
   H       -5.38278        18.53988         2.21264
   H       -7.17696        16.25081         3.21250
   H       -6.13857        18.84553         4.49312
   H       -9.51315        14.21817         7.12942
   H       -8.02687        18.22031         9.70521
   H       -8.94938        17.26420        11.72470
   H      -10.13251        15.44240        12.88469
   H      -10.88816        13.45826        11.63629
   H      -10.46296        13.27809         9.21626
*
