# ORCA input file
# SCF done       -205.748871992074          0.000877675909
! CAM-B3LYP def2-SVP def2/J RIJCOSX Grid4 TightSCF
%maxcore 5000
%tddft
    Mode sTDDFT
    Ethresh 5.0
    maxcore 5000
end

%pal
  nprocs 6
  end
* xyz 0 1
   C       -0.50148         1.98682         1.63915
   C       -0.30028         1.23549         2.76647
   C        0.93638         0.66092         3.12645
   N        1.91767         0.17235         3.46540
   C       -1.31276         0.94595         3.70426
   N       -2.11440         0.69265         4.48558
   C        0.50541         2.31614         0.63340
   C       -0.09876         3.10082        -0.38524
   C        0.59205         3.57260        -1.47652
   C        1.95072         3.25706        -1.56572
   C        2.54934         2.47558        -0.54686
   C        1.84712         1.99684         0.55447
   S        4.23608         2.21083        -0.85738
   C        4.11762         3.14011        -2.32967
   C        2.87724         3.62440        -2.57834
  Br        5.64164         3.38167        -3.39306
   C       -1.50558         3.29891        -0.05291
   O       -2.34467         3.92835        -0.69726
   C       -1.74198         2.60370         1.21744
   C       -2.97688         2.62106         1.81907
   N       -3.97407         3.29177         1.22530
   C       -5.24964         3.47380         1.63079
   S       -5.88642         2.75983         3.07444
   C       -7.40948         3.52752         2.75123
   N       -8.45521         3.30440         3.66358
   O       -9.52035         3.84271         3.43969
   O       -8.20280         2.58666         4.61276
   C       -7.42213         4.28392         1.61282
   C       -6.18281         4.27019         0.94035
   C       -5.85863         4.96257        -0.27010
   C       -6.64490         5.84781        -0.92359
   C       -6.24657         6.53385        -2.10246
   S       -7.31077         7.71136        -2.81930
   C       -6.17801         8.10495        -4.08800
   C       -5.03242         7.32923        -3.94289
   C       -5.06758         6.46106        -2.83577
   S       -3.63819         5.50283        -2.56206
   C       -2.72385         6.13567        -3.90890
   S       -1.20008         5.66179        -4.23033
   S       -3.57142         7.32575        -4.88462
   C       -6.49078         9.12144        -5.01424
   C       -5.74186         9.42102        -6.11047
   C       -5.94217        10.50090        -7.00755
   C       -6.82836        11.59462        -6.81586
   C       -6.96315        12.63854        -7.80431
   N       -7.71461        13.71451        -7.52713
   C       -8.42090        13.75316        -6.42539
   C       -8.36863        12.66972        -5.49400
   N       -7.54823        11.66514        -5.69081
   C       -9.15371        12.69321        -4.31487
   N       -9.79303        12.73283        -3.36536
   C       -9.21972        14.90073        -6.19120
   N       -9.89076        15.81470        -6.03056
   C       -6.29145        12.60140        -9.04873
   C       -5.36566        11.55316        -9.20863
   C       -5.19417        10.53048        -8.20721
   N       -4.28776         9.62423        -8.58142
   S       -3.72220        10.01607       -10.02730
   N       -4.58292        11.34478       -10.26893
   C       -6.46104        13.58772       -10.06293
   C       -7.52203        14.40598       -10.27869
   C       -8.88163        14.39907        -9.77504
   C       -9.63685        13.29460        -9.47657
   C      -10.99066        13.34932        -9.08782
   N      -12.08547        13.33350        -8.74424
   C       -9.13406        11.98051        -9.50924
   N       -8.75387        10.89666        -9.49351
   C       -9.37868        15.76350        -9.87203
   C       -8.47090        16.52550       -10.65302
   C       -7.32935        15.67549       -11.04331
   O       -6.40376        15.95094       -11.76759
   C       -8.67535        17.85657       -10.92531
   C       -9.81560        18.46444       -10.38866
   C      -10.70478        17.69719        -9.59529
   C      -10.50773        16.34775        -9.33157
   S      -12.03050        18.65221        -9.01334
   C      -11.38984        20.04915        -9.83633
   C      -10.23849        19.81542       -10.51154
  Br      -12.29617        21.68515        -9.72702
   H        0.10365         4.16465        -2.23529
   H        2.34935         1.40634         1.30249
   H        2.62015         4.21667        -3.43752
   H       -3.18686         2.12498         2.75775
   H       -3.67241         3.73464         0.33227
   H       -8.29790         4.81359         1.28647
   H       -4.88195         4.76290        -0.68383
   H       -7.62907         6.09500        -0.55404
   H       -7.38678         9.68925        -4.81128
   H       -4.90841         8.78504        -6.38012
   H       -5.60016        13.74390       -10.70503
   H       -7.97500        18.41494       -11.52647
   H      -11.20003        15.80596        -8.70850
   H       -9.70796        20.56401       -11.07113
*
