# ORCA input file
# SCF done       -160.310868793356          0.000745857138
! CAM-B3LYP def2-SVP def2/J RIJCOSX Grid4 TightSCF
%maxcore 5000
%tddft
    Mode sTDDFT
    Ethresh 5.0
    maxcore 5000
end

%pal
  nprocs 6
  end
* xyz 0 1
   C        5.48157         4.71113         0.67528
   N        4.87674         5.05513         1.83905
   C        5.49148         5.07548         3.14232
   C        5.62869         3.66875         3.71912
   C        3.49782         5.33614         1.64340
   O        2.75030         5.66558         2.53936
   C        3.31036         5.14104         0.22759
   C        4.56014         4.75482        -0.33835
   C        4.35630         4.57414        -1.75988
   O        5.10425         4.26305        -2.65956
   N        2.98736         4.86445        -1.95911
   C        2.43556         4.75413        -3.28674
   C        1.71681         3.42273        -3.49883
   C        2.35127         5.19978        -0.77931
   C        1.00953         5.56751        -0.53106
   C       -0.05693         5.61959        -1.37932
   C       -1.34868         6.02023        -0.99602
   C       -2.49066         6.06131        -1.82090
   C       -3.65529         6.52267        -1.13576
   N       -4.85269         6.64002        -1.72869
   C       -4.93784         6.31277        -2.98928
   C       -3.85642         5.84647        -3.76027
   C       -2.62264         5.71744        -3.17698
   C       -3.40475         6.83865         0.21791
   S       -1.74352         6.55383         0.60977
   C       -4.31458         7.32859         1.17510
   C       -4.05812         7.65740         2.49245
   C       -5.25513         8.12783         3.09713
   C       -6.29466         8.05912         2.04880
   C       -5.72513         7.58243         0.91352
   C       -7.64686         8.39519         2.17680
   N       -8.76497         8.65246         2.24266
   C       -5.43326         8.56760         4.38706
   C       -6.62799         9.09319         4.97450
   C       -6.38307         9.44098         6.27442
   C       -4.99939         9.11054         6.57144
   C       -4.41957         8.59104         5.45386
   C       -3.09958         8.14179         5.37070
   N       -2.00862         7.78142         5.33660
   C       -7.37339         9.97834         7.19912
   C       -7.12088        11.06181         8.05212
   C       -5.78261        11.74443         8.08020
   C       -5.00005        11.40503         9.35023
   C       -8.15333        11.50268         8.88631
   C       -9.38567        10.85624         8.90007
   C       -9.62705         9.79444         8.04949
   C       -8.63242         9.37202         7.19337
   C       -7.99936        12.66140         9.77172
   S       -8.05287        12.45683        11.49512
   C       -7.93360        14.17000        11.76211
   C       -7.89073        14.84186        10.56521
   C       -7.93515        13.98578         9.43310
   S       -8.05884        14.47808         7.74098
   C       -6.89247        15.90724         7.62239
   C       -5.85456        15.80257         8.70428
   O       -4.94968        15.00974         8.67806
   C       -6.07109        16.73438         9.86965
   S       -7.79817        16.60392        10.46387
   C       -7.89820        14.74216        13.07930
   C       -7.96592        14.04352        14.20835
   H        6.52750         4.46675         0.64431
   H        4.84049         5.67725         3.78224
   H        6.47135         5.55620         3.06954
   H        4.64898         3.20608         3.80843
   H        6.08203         3.71670         4.70512
   H        6.25074         3.04853         3.07721
   H        3.29069         4.80863        -3.96811
   H        1.78140         5.60683        -3.48577
   H        2.42702         2.60609        -3.39690
   H        1.28994         3.38631        -4.49784
   H        0.92378         3.27857        -2.76791
   H        0.83960         5.83382         0.50602
   H        0.04213         5.33817        -2.41546
   H       -5.91815         6.41996        -3.43452
   H       -4.00968         5.59653        -4.79825
   H       -1.77412         5.36087        -3.74252
   H       -3.10812         7.58107         2.98530
   H       -6.19616         7.40558        -0.03389
   H       -7.55284         9.23027         4.45006
   H       -4.52728         9.21393         7.52998
   H       -5.91251        12.82564         8.03983
   H       -5.20197        11.45817         7.20261
   H       -5.51788        11.77248        10.23270
   H       -4.01944        11.87236         9.31243
   H       -4.87515        10.32964         9.46060
   H      -10.15724        11.20880         9.56893
   H      -10.58847         9.30416         8.05270
   H       -8.80915         8.54315         6.52462
   H       -7.47119        16.82710         7.68288
   H       -6.43459        15.79632         6.63987
   H       -5.94739        17.77194         9.55852
   H       -5.38332        16.50149        10.68350
   H       -7.81457        15.82110        13.09934
   H       -8.05907        12.96983        14.20070
   H       -7.93401        14.52338        15.16986
*
