# ORCA input file
# SCF done       -266.799233674832          0.000660117233
! CAM-B3LYP def2-SVP def2/J RIJCOSX Grid4 TightSCF
%maxcore 5000
%tddft
    Mode sTDDFT
    Ethresh 5.0
    maxcore 5000
end

%pal
  nprocs 6
  end
* xyz 0 1
   C       -0.17507        -0.71333         3.41577
   C        0.07248        -0.18286         2.17275
   C       -0.92852         0.17608         1.24829
   N       -1.68876         0.52705         0.46244
   C        1.35928         0.01476         1.63620
   N        2.37930         0.17793         1.13407
   C       -1.48767        -1.18587         3.86752
   C       -1.30339        -2.05756         4.95637
   C       -2.36507        -2.68230         5.57380
   C       -3.64927        -2.42106         5.09754
   C       -3.83973        -1.55154         4.01912
   C       -2.76392        -0.93098         3.39313
   C       -5.22932        -1.34609         3.48026
   O       -5.77388        -2.12280         2.74381
   O       -5.72332        -0.17371         3.86541
   C       -7.06126         0.09403         3.46243
   C       -4.85509        -3.00773         5.73834
   O       -5.96525        -2.54984         5.61856
   O       -4.57057        -4.08622         6.46856
   C       -5.67408        -4.71153         7.10937
   C        0.13908        -2.12802         5.28676
   O        0.67093        -2.80799         6.13488
   C        0.79342        -1.14490         4.38956
   C        2.08943        -0.78469         4.65880
   C        2.81278         0.34726         4.26235
   C        2.38119         1.55818         3.72135
   C        3.40016         2.45788         3.48506
   C        4.65028         1.94356         3.84349
   S        4.54982         0.36985         4.51201
   C        5.77885         2.75971         3.60846
   C        5.57716         3.99441         3.00196
  Ge        3.65013         4.21706         2.63556
   C        3.17775         4.16060         0.71366
   C        2.83104         5.72072         3.63982
   C        6.76871         4.70069         2.85092
   C        7.87713         4.03571         3.33693
   S        7.43594         2.47889         3.98708
   C        9.24699         4.48473         3.39112
   C       10.20636         3.75481         4.10192
   C       11.50640         4.19244         4.19905
   C       11.90905         5.38027         3.58472
   C       10.95541         6.10962         2.87165
   C        9.65418         5.67074         2.76895
   C       13.27632         5.88837         3.74107
   C       13.39104         7.33770         3.97547
   C       14.32749         8.10159         3.28158
   C       14.41329         9.46441         3.49164
   C       13.56747        10.08595         4.39585
   C       12.62642         9.33715         5.08276
   C       12.53307         7.97469         4.87005
   C       14.35972         5.07719         3.69153
   C       15.70642         5.52069         4.08230
   C       15.90967         6.26523         5.24312
   C       17.18328         6.65238         5.61223
   C       18.27334         6.30356         4.83139
   C       18.08348         5.55335         3.68285
   C       16.81165         5.15791         3.31413
   C       14.27106         3.68617         3.22488
   C       13.62094         3.37587         2.03008
   C       13.58034         2.08013         1.56562
   C       14.17062         1.04370         2.29500
   C       14.80897         1.35396         3.49843
   C       14.87692         2.65559         3.94372
   C       14.13014        -0.31643         1.80686
   C       14.06207        -0.74523         0.49855
   C       14.05770        -2.13317         0.36608
   C       14.10373        -2.77154         1.59992
   S       14.18195        -1.65810         2.91383
   C       14.08475        -4.18432         1.61402
   C       14.04795        -4.84467         0.38326
  Ge       14.04884        -3.49843        -1.05680
   C       12.39338        -3.51493        -2.15005
   C       15.71541        -3.51877        -2.12988
   C       14.00194        -6.21703         0.53698
   C       14.02391        -6.64041         1.86512
   S       14.07076        -5.26180         2.94771
   C       13.88443        -7.97155         2.28903
   C       13.95922        -8.51809         3.54087
   C       14.50484        -8.03528         4.78559
   C       15.61436        -7.24183         4.92888
   C       16.15109        -6.84832         6.17010
   N       16.61328        -6.47590         7.15273
   C       16.39737        -6.82538         3.83227
   N       17.08577        -6.52544         2.96372
   C       13.86320        -8.79136         5.86209
   C       13.15195        -9.86404         5.29172
   C       13.25147        -9.79162         3.81403
   O       12.80465       -10.57025         3.00258
   C       12.46850       -10.77301         6.07007
   C       12.48516       -10.59851         7.45341
   C       13.18665        -9.53139         8.02466
   C       13.88569        -8.62355         7.23670
   C       13.24178        -9.41096         9.52371
   O       13.99928       -10.04166        10.20974
   O       12.40614        -8.47340         9.95867
   C       12.32620        -8.32562        11.37141
   C       11.72644       -11.49684         8.36181
   O       11.42920       -11.20636         9.49497
   O       11.39835       -12.65190         7.78192
   C       10.67027       -13.56636         8.58977
   H       -2.20728        -3.34891         6.40676
   H       -2.94126        -0.26443         2.56437
   H       -7.27579         1.11174         3.77757
   H       -7.73619        -0.61172         3.94958
   H       -7.15846        -0.00690         2.37970
   H       -5.27873        -5.59936         7.59572
   H       -6.43480        -4.98023         6.37382
   H       -6.11803        -4.03583         7.84346
   H        2.59895        -1.45492         5.34547
   H        1.34165         1.78224         3.55667
   H        3.56750         3.25184         0.26572
   H        3.58628         5.01888         0.18915
   H        2.09808         4.16492         0.59980
   H        3.12845         5.68778         4.68334
   H        1.74864         5.66040         3.58214
   H        3.14613         6.66976         3.21719
   H        6.81548         5.68158         2.41207
   H        9.91322         2.84053         4.59781
   H       12.21784         3.62505         4.77955
   H       11.24901         7.02988         2.38701
   H        8.94444         6.25182         2.20108
   H       14.98101         7.62161         2.56798
   H       15.14171        10.04566         2.94551
   H       13.63868        11.15069         4.56124
   H       11.96187         9.81704         5.78640
   H       11.80072         7.39054         5.40966
   H       15.06425         6.52684         5.86215
   H       17.32743         7.22622         6.51587
   H       19.26755         6.61012         5.12046
   H       18.93020         5.27330         3.07330
   H       16.66478         4.57464         2.41579
   H       13.15746         4.16710         1.45908
   H       13.07140         1.85834         0.63992
   H       15.26999         0.56218         4.07130
   H       15.38929         2.88431         4.86717
   H       14.04447        -0.06822        -0.33758
   H       11.51621        -3.50479        -1.51082
   H       12.36431        -4.40630        -2.76912
   H       12.36352        -2.64420        -2.79783
   H       16.58101        -3.54687        -1.47550
   H       15.77556        -2.63189        -2.75328
   H       15.73465        -4.39470        -2.77098
   H       13.96735        -6.91639        -0.28044
   H       13.55488        -8.66166         1.51710
   H       11.92855       -11.59152         5.62102
   H       14.41807        -7.80774         7.69956
   H       11.90253        -9.23168        11.80793
   H       11.67808        -7.47205        11.55155
   H       13.31944        -8.15610        11.79186
   H       10.53092       -14.45953         7.98649
   H        9.70628       -13.13760         8.87174
   H       11.23097       -13.79721         9.49774
*
