# ORCA input file
# SCF done       -201.237045640552          0.000855495671
! CAM-B3LYP def2-SVP def2/J RIJCOSX Grid4 TightSCF
%maxcore 5000
%tddft
    Mode sTDDFT
    Ethresh 5.0
    maxcore 5000
end

%pal
  nprocs 6
  end
* xyz 0 1
   C       -0.37837        -2.11571         7.58989
   C       -1.39994        -2.26208         8.47500
   S       -1.21772        -3.70463         9.40685
   C        0.26828        -4.12362         8.58719
  Cl        1.12715        -5.53001         8.97902
   C        0.57746        -3.18104         7.65273
   C        1.63550        -2.94393         6.67101
   O        2.60488        -3.64491         6.44144
   C        1.28497        -1.67162         6.01463
   C        0.03938        -1.16951         6.57155
   C       -0.65613        -0.03647         6.24005
   C       -1.86010         0.29858         6.89512
   N       -2.83936         0.58638         7.41905
   C       -0.29665         0.90192         5.25284
   N       -0.06318         1.70214         4.46296
   C        2.03074        -1.04398         5.04985
   C        3.24357        -1.41380         4.44890
   C        3.87340        -0.59605         3.50158
   C        5.06131        -1.13217         3.04539
   C        5.34547        -2.38639         3.63950
   S        4.16370        -2.88727         4.75799
   C        6.58257        -2.84113         3.12317
   C        7.08452        -1.88534         2.22078
   C        6.13881        -0.78422         2.13248
   C        6.24500         0.32962         1.35348
   C        5.25672         1.33718         1.33723
   N        4.45901         2.15988         1.31973
   C        7.35309         0.54334         0.50625
   N        8.25845         0.71168        -0.17689
   C        8.31751        -2.24233         1.67955
   C        8.75412        -3.46668         2.15538
   S        7.62260        -4.18746         3.28910
   C        9.96742        -4.12675         1.83580
   C       10.36915        -5.39436         2.21742
   C       11.63852        -5.70587         1.73203
   C       12.20896        -4.66114         0.98369
   S       11.17915        -3.30611         0.86100
   C       13.50020        -5.06151         0.55840
   C       13.74381        -6.36407         1.02823
   C       12.58030        -6.81407         1.77719
   C       12.40953        -8.01909         2.39153
   C       11.22754        -8.34139         3.09194
   N       10.26573        -8.60305         3.65813
   C       13.40511        -9.01903         2.36608
   N       14.21336        -9.83160         2.34398
   C       15.00360        -6.84236         0.67084
   C       15.72201        -5.91057        -0.05707
   S       14.82037        -4.42311        -0.31434
   C       17.03909        -6.03511        -0.56588
   C       17.78497        -5.06097        -1.20746
   C       19.05210        -5.52240        -1.55550
   C       19.27001        -6.86169        -1.18447
   S       17.91584        -7.54748        -0.39942
   C       20.57580        -7.23719        -1.58452
   C       21.18765        -6.12492        -2.20003
   C       20.24942        -5.01727        -2.20966
   C       20.44797        -3.77938        -2.74593
   C       19.45656        -2.77663        -2.70404
   N       18.64905        -1.96430        -2.65684
   C       21.66646        -3.43609        -3.36963
   N       22.66502        -3.17184        -3.86717
   C       22.46909        -6.39601        -2.65833
   C       22.84899        -7.70836        -2.41212
   S       21.59179        -8.60052        -1.55782
   C       24.07112        -8.35045        -2.69981
   C       25.05288        -7.98846        -3.57390
   C       26.41391        -8.58379        -3.37838
   O       26.69151        -9.50805        -2.65254
   C       27.29594        -7.76270        -4.21401
   C       28.63196        -7.65559        -4.46021
   S       28.94145        -6.37804        -5.61291
   C       27.26009        -6.01340        -5.75740
   C       26.51288        -6.82178        -4.96048
   C       25.10671        -7.04052        -4.66972
   C       24.08528        -6.59803        -5.47084
   C       24.32815        -5.75067        -6.57266
   N       24.50862        -5.06186        -7.47173
   C       22.74069        -6.99025        -5.35113
   N       21.63798        -7.30728        -5.30236
  Cl       29.89371        -8.57409        -3.80204
   H       -2.24679        -1.62877         8.64999
   H        1.64935        -0.09884         4.68114
   H        3.45481         0.34440         3.18900
   H        8.88037        -1.65637         0.97522
   H        9.75584        -6.04378         2.81602
   H       15.39588        -7.81071         0.92510
   H       17.41114        -4.07092        -1.39827
   H       23.12378        -5.67093        -3.10599
   H       24.30430        -9.22492        -2.09915
   H       26.94676        -5.22243        -6.40946
*
