# ORCA input file
# SCF done       -209.959512715558          0.000679597632
! CAM-B3LYP def2-SVP def2/J RIJCOSX Grid4 TightSCF
%maxcore 5000
%tddft
    Mode sTDDFT
    Ethresh 5.0
    maxcore 5000
end

%pal
  nprocs 6
  end
* xyz 0 1
   C       -2.28647        -0.84888        -0.87187
   C       -3.05129        -0.27101         0.13735
   C       -4.00111         0.83163        -0.20518
   C       -2.93773        -0.71598         1.46462
   C       -3.76509        -0.09734         2.54460
   C       -2.04831        -1.74003         1.77115
   C       -1.29504        -2.30720         0.76348
   C       -1.40496        -1.87344        -0.56719
   C       -0.50577        -2.66581        -1.39709
   C       -0.41802        -2.58142        -2.76251
   C       -1.15966        -1.67016        -3.54503
   N       -1.72381        -0.95569        -4.24445
   C        0.38280        -3.38335        -3.60292
   N        0.98464        -3.99844        -4.36423
   C        0.21095        -3.58410        -0.52139
   C       -0.30515        -3.38994         0.85989
   O        0.02465        -3.96418         1.87622
   C        1.22616        -4.39629        -0.94145
   C        1.96756        -5.38886        -0.26640
   C        1.85397        -5.95970         0.99423
   C        2.78875        -6.96534         1.20078
   C        3.63895        -7.17230         0.09054
   S        3.27550        -6.13326        -1.20266
   C        4.54227        -8.21597         0.40449
   C        4.26546        -8.67351         1.70457
   C        3.15558        -7.90313         2.24826
   C        2.58610        -8.05304         3.47737
   C        3.05674        -9.01355         4.39892
   N        3.44019        -9.79257         5.14782
   C        1.48883        -7.28644         3.92829
   N        0.58953        -6.69893         4.32716
   C        5.09389        -9.72127         2.09880
   C        6.00104       -10.06374         1.11078
   S        5.82935        -9.07229        -0.32799
   C        6.97506       -11.09181         1.16976
   C        7.91542       -11.43429         0.21481
   C        8.70012       -12.51360         0.62106
   C        8.34789       -12.99568         1.89358
   S        7.06143       -12.12115         2.59340
   C        9.19031       -14.08879         2.21382
   C       10.08112       -14.29771         1.14710
   C        9.80131       -13.31600         0.10958
   C       10.43382       -13.18070        -1.09061
   C       11.49205       -14.02977        -1.47868
   N       12.35047       -14.72177        -1.79269
   C       10.06775       -12.18520        -2.02136
   N        9.77121       -11.37697        -2.77833
   C       10.95630       -15.36019         1.37283
   C       10.73217       -15.96168         2.59814
   S        9.42110       -15.19961         3.48814
   C       11.41664       -17.06391         3.16926
   C       11.13088       -17.69130         4.36921
   C       12.00618       -18.74373         4.62684
   C       12.97105       -18.91566         3.61863
   S       12.79268       -17.78522         2.34967
   C       13.81667       -19.99530         3.97937
   C       13.37360       -20.51019         5.21385
   C       12.23087       -19.73759         5.66483
   C       11.54303       -19.89594         6.83171
   C       11.89182       -20.89869         7.76119
   N       12.18439       -21.72030         8.50569
   C       10.44874       -19.07474         7.17495
   N        9.55361       -18.41165         7.44598
   C       14.15764       -21.55915         5.67687
   C       15.20707       -21.84809         4.81893
   S       15.18532       -20.81841         3.39182
   C       16.20084       -22.84688         4.94412
   C       16.58647       -23.51688         6.06190
   C       17.32515       -24.80861         5.90908
   O       17.84780       -25.21864         4.89873
   C       17.21399       -25.46690         7.22015
   C       16.59770       -24.59397         8.13519
   C       16.34767       -25.02149         9.42703
   C       16.72188       -26.30591         9.81169
   C       17.35656       -27.16612         8.90048
   C       17.59649       -26.73824         7.59868
   C       17.76919       -28.53978         9.32133
   C       16.44169       -26.76321        11.20678
   C       16.34758       -23.31583         7.47777
   C       16.18336       -22.11981         8.12554
   C       16.16917       -20.86768         7.48114
   N       16.17324       -19.82342         7.00338
   C       16.10267       -21.99379         9.52873
   N       16.03860       -21.83316        10.66298
   H       -2.39198        -0.48514        -1.88107
   H       -3.96722         1.05454        -1.26792
   H       -3.75322         1.73623         0.34909
   H       -5.02057         0.55328         0.05977
   H       -4.82652        -0.21549         2.32889
   H       -3.56235         0.97063         2.61861
   H       -3.55201        -0.55918         3.50460
   H       -1.94100        -2.10027         2.78336
   H        1.53150        -4.27978        -1.97484
   H        1.12049        -5.63343         1.70988
   H        5.05331       -10.22143         3.04968
   H        8.01065       -10.91409        -0.72148
   H       11.71895       -15.69314         0.69185
   H       10.32246       -17.38648         5.00945
   H       13.96067       -22.12003         6.57206
   H       16.67732       -23.17255         4.02457
   H       15.85162       -24.37874        10.13716
   H       18.07778       -27.38734         6.88255
   H       16.90443       -29.11478         9.65113
   H       18.46819       -28.49099        10.15556
   H       18.24489       -29.06810         8.49977
   H       15.95111       -25.98023        11.77799
   H       17.36731       -27.03490        11.71290
   H       15.80067       -27.64423        11.19916
*
