# ORCA input file
# SCF done       -193.147457495501          0.000713334602
! CAM-B3LYP def2-SVP def2/J RIJCOSX Grid4 TightSCF
%maxcore 5000
%tddft
    Mode sTDDFT
    Ethresh 5.0
    maxcore 5000
end

%pal
  nprocs 6
  end
* xyz 0 1
   C       -2.09503        -3.19439         2.69305
   C       -3.42333        -3.48806         2.65144
   S       -3.67264        -5.16099         2.31266
   C       -1.98031        -5.47510         2.22478
   C       -1.27001        -4.33956         2.44687
   C        0.13695        -3.94000         2.50610
   O        1.11557        -4.64963         2.35168
   C        0.12764        -2.49333         2.79066
   C       -1.24855        -2.03830         2.91868
   C       -1.71633        -0.78147         3.19805
   C       -3.10092        -0.52114         3.27571
   N       -4.22372        -0.29392         3.33911
   C       -0.93346         0.36450         3.43845
   N       -0.35432         1.33415         3.64629
   C        1.23709        -1.69507         2.89239
   C        2.60012        -2.00549         2.76118
   C        3.59002        -1.01935         2.85426
   C        4.86167        -1.52644         2.66982
   C        4.85231        -2.92395         2.44249
   S        3.28905        -3.59906         2.44881
   C        6.19092        -3.34088         2.24505
   C        7.04040        -2.22350         2.33989
   C        6.23354        -1.04603         2.61794
   C        6.67611         0.23262         2.78428
   C        5.79967         1.30713         3.04759
   N        5.09484         2.18567         3.25988
   C        8.04523         0.56387         2.70092
   N        9.15864         0.82840         2.63042
   C        8.38101        -2.53904         2.12896
   C        8.55939        -3.88827         1.87713
   S        7.04675        -4.78144         1.90888
   C        9.77578        -4.55370         1.58178
   C        9.96762        -5.90594         1.36148
   C       11.29464        -6.19953         1.05127
   C       12.11759        -5.05963         1.03343
   S       11.26303        -3.63117         1.41152
   C       13.42988        -5.45462         0.67145
   C       13.43851        -6.84547         0.46517
   C       12.09937        -7.36091         0.70489
   C       11.68525        -8.65666         0.61472
   C       10.34951        -9.03542         0.86743
   N        9.26335        -9.34051         1.07160
   C       12.56688        -9.70046         0.26162
   N       13.28454       -10.54605        -0.02827
   C       14.68486        -7.32740         0.06915
   C       15.62152        -6.31428        -0.03417
   S       14.95336        -4.74158         0.38081
   C       16.97014        -6.42585        -0.45540
   C       17.88781        -5.40224        -0.62085
   C       19.10950        -5.87133        -1.09857
   C       19.12293        -7.26431        -1.29097
   S       17.63241        -7.99513        -0.88226
   C       20.38872        -7.64034        -1.79799
   C       21.18012        -6.47713        -1.93730
   C       20.40864        -5.33354        -1.47913
   C       20.81108        -4.03397        -1.39746
   C       19.94689        -3.01830        -0.93420
   N       19.24021        -2.19677        -0.55951
   C       22.11350        -3.60666        -1.73820
   N       23.16858        -3.23259        -1.98293
   C       22.43236        -6.73060        -2.48013
   C       22.62175        -8.07956        -2.75327
   S       21.20537        -9.04203        -2.29905
   C       23.71658        -8.80377        -3.26668
   C       24.84901        -8.37856        -3.90477
   C       25.13140        -7.01511        -4.44069
   O       24.46073        -6.01322        -4.32546
   C       26.37958        -7.15815        -5.19963
   C       27.18422        -6.35846        -5.94452
   S       28.52969        -7.24759        -6.55425
   C       28.00485        -8.70742        -5.80179
   C       26.84589        -8.50872        -5.11499
   C       25.92764        -9.27520        -4.29865
   C       26.11738       -10.58719        -3.94950
   C       27.23341       -11.31109        -4.41985
   N       28.13207       -11.91638        -4.79737
   C       25.29381       -11.35586        -3.10423
   N       24.67546       -12.03570        -2.41485
   H       -4.27068        -2.84777         2.79328
   H       -1.62438        -6.46433         2.01756
   H        1.06242        -0.64425         3.09249
   H        3.35346         0.01313         3.04235
   H        9.19554        -1.83738         2.15027
   H        9.17022        -6.62466         1.42290
   H       14.91321        -8.35581        -0.14642
   H       17.65683        -4.37384        -0.40830
   H       23.17960        -5.98639        -2.68576
   H       23.61422        -9.87599        -3.14177
   H       27.07787        -5.31625        -6.16950
   H       28.58386        -9.60075        -5.92356
*
