# ORCA input file
# SCF done       -216.859729826246          0.000336505608
! CAM-B3LYP def2-SVP def2/J RIJCOSX Grid4 TightSCF
%maxcore 5000
%tddft
    Mode sTDDFT
    Ethresh 5.0
    maxcore 5000
end

%pal
  nprocs 6
  end
* xyz 0 1
   C       -2.54423        -0.70408         5.45273
   C       -1.38996        -1.14547         4.87517
   C       -0.23898        -0.43221         5.35264
   C       -0.53741         0.52898         6.26108
   S       -2.23548         0.57518         6.55875
   C        0.97990        -0.95045         4.71957
   O        2.11984        -0.61069         4.93602
   C        0.49543        -2.05715         3.84781
   C       -0.95488        -2.08497         3.86024
   C       -1.72166        -2.76736         2.95070
   N       -3.14011        -2.91243         3.03096
   O       -3.73911        -3.09716         1.99464
   O       -3.65348        -2.83396         4.12990
   N       -1.15122        -3.35332         1.74902
   O       -1.47398        -4.48520         1.48192
   O       -0.39055        -2.66265         1.10784
   C        1.27384        -3.06476         3.33302
   C        2.65876        -3.07078         3.11304
   C        3.56985        -2.02165         3.00901
   C        4.84400        -2.46738         2.70159
   C        4.92416        -3.87565         2.56359
   S        3.42351        -4.63440         2.79244
   C        6.25878        -4.22038         2.25739
   C        7.02773        -3.04210         2.19698
   C        6.16217        -1.90248         2.46588
   C        6.51831        -0.58707         2.47384
   C        5.59601         0.45712         2.70731
   N        4.86592         1.32374         2.87649
   C        7.84690        -0.17815         2.22667
   N        8.92790         0.14624         2.02574
   C        8.36306        -3.28232         1.88730
   C        8.61798        -4.63308         1.70969
   S        7.18510        -5.62138         1.93324
   C        9.85396        -5.23416         1.36698
   C       10.11079        -6.57929         1.16333
   C       11.43910        -6.80740         0.81155
   C       12.19979        -5.62502         0.74968
   S       11.28221        -4.23672         1.12642
   C       13.52232        -5.95794         0.36650
   C       13.59923        -7.35091         0.18315
   C       12.29450        -7.93107         0.46225
   C       11.94612        -9.24772         0.40454
   C       10.63862        -9.68809         0.70224
   N        9.57534       -10.04050         0.94542
   C       12.87091       -10.25061         0.04255
   N       13.62443       -11.06153        -0.25455
   C       14.86428        -7.77582        -0.21630
   C       15.74977        -6.71841        -0.33787
   S       15.00606        -5.17456         0.05415
   C       17.10618        -6.77024        -0.74343
   C       17.98966        -5.70883        -0.85726
   C       19.23921        -6.12042        -1.31095
   C       19.30946        -7.50780        -1.54341
   S       17.83591        -8.30142        -1.19645
   C       20.60708        -7.82790        -2.00527
   C       21.35821        -6.63107        -2.07476
   C       20.52974        -5.52658        -1.62490
   C       20.90605        -4.22455        -1.48468
   C       20.01712        -3.23858        -1.00666
   N       19.28180        -2.44513        -0.62761
   C       22.20548        -3.79149        -1.82833
   N       23.25447        -3.45012        -2.13826
   C       22.66620        -6.83772        -2.47839
   C       22.94058        -8.18427        -2.70513
   S       21.51287        -9.19001        -2.46649
   C       24.14365        -8.79767        -3.09877
   C       25.42836        -8.34054        -3.00979
   C       26.04543        -7.22435        -2.31993
   C       25.59574        -6.61717        -1.17160
   N       26.22405        -5.46882        -0.57591
   O       26.75459        -4.67124        -1.31834
   O       26.19451        -5.39081         0.63051
   N       24.47944        -7.10475        -0.41346
   O       23.75196        -6.27980         0.09932
   O       24.30260        -8.30367        -0.36612
   C       27.34962        -7.03447        -2.93773
   C       28.39561        -6.15876        -2.89326
   S       29.69895        -6.69012        -3.87908
   C       28.85082        -8.10786        -4.37192
   C       27.62125        -8.15011        -3.80261
   C       26.45737        -9.03914        -3.84205
   O       26.31034       -10.07682        -4.43989
   H       -3.54487        -1.06780         5.33049
   H        0.12192         1.20927         6.76178
   H        0.78208        -4.00209         3.09253
   H        3.29150        -0.99367         3.14369
   H        9.12370        -2.52882         1.78844
   H        9.35602        -7.33834         1.26565
   H       15.14350        -8.79498        -0.41528
   H       17.71903        -4.69579        -0.61881
   H       23.38577        -6.05633        -2.64630
   H       24.05207        -9.76981        -3.57429
   H       28.47438        -5.21924        -2.38327
   H       29.30692        -8.81131        -5.03920
*
