# ORCA input file
# SCF done       -208.600595295426          0.000868576804
! CAM-B3LYP def2-SVP def2/J RIJCOSX Grid4 TightSCF
%maxcore 5000
%tddft
    Mode sTDDFT
    Ethresh 5.0
    maxcore 5000
end

%pal
  nprocs 6
  end
* xyz 0 1
   C        4.39453        -2.49125        -8.68685
   C        4.94163        -2.48419        -9.94120
   C        6.21367        -3.03314       -10.16236
   C        6.92138        -3.58031        -9.12698
   C        6.38715        -3.60690        -7.82266
   C        7.10746        -4.18466        -6.75209
   C        6.55238        -4.20223        -5.50099
   C        5.26644        -3.62617        -5.27933
   C        4.54808        -3.06544        -6.29601
   C        5.09518        -3.04807        -7.59870
   C        4.91258        -3.74912        -3.85448
   O        3.88664        -3.42451        -3.30511
   C        6.13336        -4.31031        -3.20008
   C        7.02704        -4.76978        -4.24479
   C        7.95259        -5.77242        -4.12491
   C        8.15543        -6.50165        -2.93504
   N        8.30846        -7.14951        -1.99992
   C        8.72625        -6.25612        -5.19960
   N        9.38859        -6.67273        -6.03925
   C        6.26816        -4.23018        -1.85348
   C        7.44402        -4.32528        -1.06380
   C        7.47438        -4.62788         0.28677
   F        6.37185        -4.92492         0.97284
   C        8.75850        -4.62335         0.83811
   C        9.73298        -4.25907        -0.09923
   S        9.05585        -3.95364        -1.65292
   C       11.01525        -4.24562         0.45818
   C       10.99789        -4.61235         1.80916
   S        9.40841        -4.96578         2.41367
   C       12.27939        -4.61452         2.37037
   F       12.53519        -4.93051         3.64498
   C       13.27172        -4.24974         1.48016
   S       12.60955        -3.89609        -0.10129
   C       14.66690        -4.15716         1.74345
   C       15.65259        -3.71531         0.88142
   F       15.38856        -3.29823        -0.36226
   C       16.93485        -3.74209         1.44037
   C       16.92740        -4.22233         2.75433
   S       15.33940        -4.62605         3.29123
   C       18.21286        -4.24657         3.30873
   C       19.17676        -3.77743         2.41004
   S       18.51946        -3.30813         0.86967
   C       20.46267        -3.79174         2.96074
   F       21.55795        -3.38823         2.30689
   C       20.50140        -4.26869         4.25751
   S       18.90291        -4.71207         4.81922
   C       21.64864        -4.40243         5.08814
   C       21.69984        -4.94152         6.36122
   F       20.61758        -5.42806         6.98022
   C       22.98074        -4.92508         6.92124
   C       23.92607        -4.35649         6.05934
   S       23.22634        -3.85732         4.56403
   C       25.20942        -4.33104         6.61598
   C       25.21616        -4.89166         7.90393
   S       23.65219        -5.45115         8.43686
   C       26.48446        -4.86043         8.46442
   F       26.77308        -5.32824         9.67980
   C       27.45803        -4.27892         7.64470
   S       26.75808        -3.75499         6.12058
   C       28.79865        -4.17129         8.06211
   C       29.86035        -3.58791         7.42907
   C       31.22137        -3.49260         7.93134
   C       31.74021        -4.10598         9.04029
   C       33.08256        -3.97570         9.45701
   N       34.15909        -3.91103         9.85017
   C       31.04082        -4.97081         9.90948
   N       30.55326        -5.69311        10.65716
   C       31.96932        -2.64613         7.00657
   C       31.11383        -2.28609         5.92545
   C       31.53826        -1.49618         4.89588
   C       32.86492        -1.01146         4.90418
   C       33.35874        -0.18625         3.87478
   C       34.64525         0.27961         3.90885
   C       35.49385        -0.06117         4.97258
   C       35.04554        -0.86305         5.98713
   C       33.72631        -1.35949         5.98465
   C       33.25899        -2.18562         7.03319
   C       29.78969        -2.87957         6.14256
   O       28.82281        -2.79136         5.40469
   H        3.41534        -2.07069        -8.51055
   H        4.39731        -2.05630       -10.76967
   H        6.62996        -3.02106       -11.15848
   H        7.89952        -4.00719        -9.29304
   H        8.08724        -4.59330        -6.94503
   H        3.57183        -2.64310        -6.10996
   H        5.35977        -4.00240        -1.30193
   H       28.97423        -4.60789         9.03923
   H       30.86854        -1.24189         4.08780
   H       32.70023         0.07265         3.05866
   H       35.01548         0.91340         3.11700
   H       36.50574         0.31511         4.98452
   H       35.69597        -1.12886         6.80738
   H       33.93666        -2.42737         7.83625
*
