# ORCA input file
# SCF done       -216.465812023737          0.000962421288
! CAM-B3LYP def2-SVP def2/J RIJCOSX Grid4 TightSCF
%maxcore 5000
%tddft
    Mode sTDDFT
    Ethresh 5.0
    maxcore 5000
end

%pal
  nprocs 6
  end
* xyz 0 1
   C       -1.05218        -1.61632        -2.36815
   C       -1.94909        -2.26993        -1.56724
   C       -1.51166        -3.25814        -0.67271
   C       -0.18424        -3.58035        -0.59210
   C        0.76602        -2.92995        -1.40501
   C        2.13651        -3.27035        -1.33632
   C        3.03013        -2.62263        -2.14558
   C        2.58414        -1.59628        -3.02913
   C        1.26585        -1.25348        -3.12130
   C        0.32165        -1.92290        -2.31033
   C        3.74344        -1.02691        -3.73573
   O        3.75687        -0.17654        -4.59568
   C        4.93763        -1.68157        -3.12171
   C        4.46951        -2.79078        -2.31569
   C        5.16386        -3.92816        -1.99309
   C        4.59348        -5.03200        -1.32438
   N        4.18316        -5.95989        -0.78822
   C        6.49690        -4.17863        -2.36991
   N        7.57276        -4.44168        -2.67428
   C        6.16468        -1.13168        -3.32965
   C        7.35289        -1.33933        -2.59290
   C        7.49729        -1.81496        -1.29845
   C        8.82937        -1.89850        -0.91497
   C        9.71874        -1.47506        -1.92318
   S        8.90640        -0.94803        -3.32192
   C       11.04329        -1.66278        -1.45532
   C       10.99084        -2.20629        -0.15932
   C        9.59696        -2.37394         0.22157
   C        9.10611        -2.90740         1.37668
   C        9.95031        -3.35581         2.41416
   N       10.64266        -3.71001         3.25684
   C        7.71826        -3.04243         1.59299
   N        6.58771        -3.14396         1.75538
   C       12.25160        -2.46302         0.37440
   C       13.26396        -2.12037        -0.50513
   S       12.64589        -1.46274        -2.01213
   C       14.65893        -2.27888        -0.31072
   C       15.67907        -1.96216        -1.18993
   C       16.93133        -2.29595        -0.67561
   C       16.86054        -2.86932         0.60591
   S       15.25809        -2.99241         1.18028
   C       18.17274        -3.19647         1.02863
   C       19.07569        -2.83167         0.01451
   C       18.32623        -2.24712        -1.08716
   C       18.82471        -1.75919        -2.25858
   C       20.20616        -1.77157        -2.54647
   N       21.32900        -1.78367        -2.77738
   C       17.99063        -1.20946        -3.25535
   N       17.31115        -0.76141        -4.06271
   C       20.39881        -3.13577         0.33206
   C       20.50768        -3.72849         1.57741
   S       18.94876        -3.90721         2.37175
   C       21.68262        -4.19006         2.22148
   C       21.77381        -4.78188         3.46989
   C       23.08434        -5.13261         3.78496
   C       23.99817        -4.80445         2.76792
   S       23.24251        -4.06058         1.42605
   C       25.29211        -5.20670         3.17444
   C       25.19739        -5.79541         4.45682
   C       23.80898        -5.75497         4.88450
   C       23.28282        -6.18709         6.06514
   C       24.05757        -6.74947         7.10372
   N       24.65198        -7.19581         7.97580
   C       21.90246        -6.08238         6.34267
   N       20.78096        -5.99695         6.56565
   C       26.41668        -6.24706         4.94231
   C       27.45593        -6.01242         4.05046
   S       26.88347        -5.19900         2.58296
   C       28.84301        -6.25579         4.10591
   C       29.60639        -6.93816         5.01288
   C       31.05765        -7.02678         4.94047
   C       31.89103        -6.30770         4.12195
   C       33.29607        -6.44039         4.11425
   N       34.44080        -6.49892         4.04875
   C       31.50275        -5.31819         3.19448
   N       31.28227        -4.48900         2.43005
   C       31.50000        -7.98015         5.95098
   C       30.36127        -8.42904         6.67612
   C       30.46035        -9.32237         7.70347
   C       31.73300        -9.82085         8.05985
   C       31.90096       -10.74076         9.11329
   C       33.14419       -11.21158         9.43854
   C       34.27321       -10.78300         8.72451
   C       34.14423        -9.88998         7.69576
   C       32.87899        -9.38369         7.33457
   C       32.74303        -8.45692         6.27553
   C       29.14887        -7.79156         6.13941
   O       28.01680        -7.97418         6.53576
   H       -1.38344        -0.85403        -3.05810
   H       -3.00025        -2.02858        -1.61823
   H       -2.23241        -3.76391        -0.04789
   H        0.15752        -4.34292         0.09210
   H        2.44873        -4.02773        -0.63444
   H        0.94597        -0.48073        -3.80443
   H        6.21225        -0.40194        -4.13218
   H        6.66158        -2.05170        -0.66539
   H       12.43999        -2.88333         1.34612
   H       15.50074        -1.51807        -2.15283
   H       21.24860        -2.94652        -0.29909
   H       20.91826        -4.94293         4.10088
   H       26.56885        -6.73723         5.88735
   H       29.37597        -5.82358         3.26683
   H       29.57765        -9.64156         8.23744
   H       31.02772       -11.06671         9.65916
   H       33.26454       -11.91656        10.24747
   H       35.24681       -11.16401         8.99416
   H       35.01079        -9.55615         7.14405
   H       33.63078        -8.15086         5.74576
*
