# ORCA input file
# SCF done       -226.848365558372          0.000815665749
! CAM-B3LYP def2-SVP def2/J RIJCOSX Grid4 TightSCF
%maxcore 5000
%tddft
    Mode sTDDFT
    Ethresh 5.0
    maxcore 5000
end

%pal
  nprocs 6
  end
* xyz 0 1
   C        1.90561         1.09831        -2.87904
   C        2.20159         2.15536        -2.01733
   C        1.94257         3.53313        -2.57302
   O        1.90237         3.71126        -3.75774
   O        1.74338         4.53856        -1.72031
   C        2.75750         1.89731        -0.75185
   C        3.08485         2.92242         0.16711
   N        3.35372         3.71697         0.94998
   C        3.03707         0.58424        -0.35189
   C        2.73509        -0.44182        -1.21746
   C        2.15701        -0.20175        -2.47661
   C        1.95736        -1.48408        -3.14782
   C        1.24505        -1.67746        -4.29997
   C        0.62742        -0.64141        -5.03557
   N        0.09307         0.14873        -5.67191
   C        0.97595        -2.94145        -4.86988
   N        0.70854        -3.93891        -5.37058
   C        2.54357        -2.51545        -2.31147
   C        2.96862        -1.89454        -1.03647
   O        3.47120        -2.41594        -0.06650
   C        2.84325        -3.78270        -2.73648
   C        3.31820        -4.87369        -1.98527
   C        3.25261        -5.15010        -0.62413
   C        3.83741        -6.36768        -0.31012
   C        4.37083        -7.03519        -1.43766
   S        4.09990        -6.18426        -2.88202
   C        4.99862        -8.22357        -0.99915
   C        4.85214        -8.32290         0.39701
   C        4.10210        -7.16915         0.87310
   C        3.72462        -6.90744         2.15623
   C        4.05943        -7.77432         3.21902
   N        4.33865        -8.48153         4.07693
   C        2.96116        -5.77327         2.51080
   N        2.32134        -4.87158         2.81196
   C        5.46928        -9.45283         0.92728
   C        6.09666       -10.20589        -0.05166
   S        5.90030        -9.51957        -1.65519
   C        6.87318       -11.37710         0.13157
   C        7.62290       -12.04624        -0.82038
   C        8.32184       -13.11892        -0.27130
   C        8.08943       -13.27573         1.10730
   S        7.01635       -12.10168         1.72669
   C        8.87389       -14.35805         1.57735
   C        9.61410       -14.87700         0.49907
   C        9.28045       -14.12544        -0.70092
   C        9.77032       -14.31648        -1.95854
   C       10.71332       -15.32643        -2.24672
   N       11.48182       -16.14616        -2.47307
   C        9.36657       -13.51366        -3.04697
   N        9.03531       -12.85695        -3.92605
   C       10.45823       -15.91997         0.87340
   C       10.35870       -16.20541         2.22405
   S        9.19680       -15.17040         3.04289
   C       11.09479       -17.16798         2.95861
   C       10.91390       -17.53530         4.28241
   C       11.84722       -18.48472         4.68922
   C       12.75247       -18.83448         3.66993
   S       12.43664       -18.01160         2.20504
   C       13.67456       -19.77105         4.18746
   C       13.35062       -20.02581         5.53923
   C       12.18599       -19.23124         5.89274
   C       11.54599       -19.18613         7.09529
   C       11.97043       -19.95397         8.20139
   N       12.31592       -20.57160         9.10269
   C       10.42011       -18.36217         7.30991
   N        9.50804       -17.68869         7.47844
   C       14.23118       -20.91093         6.14346
   C       15.21738       -21.35925         5.27029
   S       15.04878       -20.62677         3.67247
   C       16.30349       -22.17935         5.63011
   C       17.26130       -22.76129         4.85214
   C       18.56842       -23.12731         5.46364
   O       18.82492       -23.20775         6.63950
   C       19.49107       -23.30375         4.31438
   C       18.76462       -23.19270         3.11453
   C       19.41911       -23.25835         1.89624
   C       20.79784       -23.45677         1.88109
   C       21.51258       -23.58425         3.08376
   C       20.85381       -23.50721         4.31545
   C       22.91171       -23.81909         3.09133
   N       24.02930       -24.04282         3.19977
   C       21.56529       -23.46567         0.58871
   O       22.68097       -23.03905         0.51040
   O       20.92810       -23.96360        -0.47656
   C       17.34674       -23.03377         3.43686
   C       16.31632       -23.39992         2.60953
   C       14.98023       -23.51452         3.04499
   N       13.89330       -23.65051         3.38668
   C       16.52218       -23.81832         1.28015
   N       16.68559       -24.16375         0.19788
   H        1.50027         1.33852        -3.84974
   H        1.84282         4.32000        -0.78185
   H        3.48227         0.38281         0.61081
   H        2.75309        -3.97896        -3.79883
   H        2.79364        -4.48822         0.08568
   H        5.48563        -9.72139         1.96832
   H        7.65870       -11.74427        -1.85178
   H       11.11753       -16.45335         0.21227
   H       10.13682       -17.12220         4.90019
   H       14.17484       -21.24137         7.16507
   H       16.46564       -22.27829         6.69974
   H       18.87808       -23.10713         0.97373
   H       21.39997       -23.60026         5.24176
   H       20.04286       -24.30739        -0.29130
*
