# ORCA input file
# SCF done       -208.195772856422          0.000674845095
! CAM-B3LYP def2-SVP def2/J RIJCOSX Grid4 TightSCF
%maxcore 5000
%tddft
    Mode sTDDFT
    Ethresh 5.0
    maxcore 5000
end

%pal
  nprocs 6
  end
* xyz 0 1
   C        2.80391         0.37674         1.78254
   C        2.79600         0.47537         3.16473
   C        1.98361         1.53521         3.68293
   C        1.79633         1.87349         4.99759
   C        2.38871         1.21449         6.09405
   N        2.83010         0.73444         7.03720
   C        0.96201         2.95544         5.35481
   N        0.28734         3.83271         5.65335
   S        1.19898         2.42892         2.39590
   C        1.95217         1.40184         1.13592
   O        1.74497         1.58103        -0.02858
   C        3.51936        -0.37214         4.01947
   N        4.12261        -1.08155         4.69075
   C        3.50985        -0.54932         0.98269
   C        3.53759        -0.59880        -0.41106
   C        4.34348        -1.61970        -0.88350
   C        4.94163        -2.37469         0.15605
   S        4.51150        -1.82006         1.70446
   C        5.75026        -3.37375        -0.42421
   C        5.67907        -3.25589        -1.82702
   C        4.78347        -2.15709        -2.16034
   C        4.43579        -1.73671        -3.40910
   C        4.94252        -2.36199        -4.56933
   N        5.35626        -2.87438        -5.50756
   C        3.54950        -0.66096        -3.63823
   N        2.83285         0.20764        -3.84918
   C        6.46859        -4.18888        -2.48960
   C        7.13618        -5.02320        -1.60447
   S        6.77928        -4.64707         0.07219
   C        8.03609        -6.06625        -1.92896
   C        8.64755        -6.95741        -1.06266
   C        9.49538        -7.83519        -1.73285
   C        9.53545        -7.60465        -3.12160
   S        8.51787        -6.32302        -3.60185
   C       10.44387        -8.51999        -3.70577
   C       10.97404        -9.33679        -2.69041
   C       10.38784        -8.94028        -1.41883
   C       10.62231        -9.49074        -0.19406
   C       11.51022       -10.57402        -0.01975
   N       12.23105       -11.45484         0.11588
   C        9.98659        -9.01418         0.97265
   N        9.46637        -8.62308         1.91611
   C       11.90561       -10.25703        -3.16610
   C       12.09341       -10.14183        -4.53302
   S       11.09123        -8.88515        -5.24305
   C       12.98877       -10.87841        -5.34774
   C       13.22044       -10.71106        -6.70266
   C       14.19917       -11.58255        -7.17328
   C       14.71391       -12.42404        -6.16959
   S       13.99132       -12.14007        -4.64858
   C       15.71717       -13.24757        -6.73740
   C       15.83506       -12.92219        -8.10476
   C       14.89223       -11.86418        -8.42077
   C       14.73303       -11.24083        -9.62306
   C       15.51416       -11.59758       -10.74296
   N       16.15792       -11.90225       -11.64141
   C       13.78974       -10.20900        -9.81258
   N       13.01554        -9.37623        -9.95694
   C       16.83446       -13.63962        -8.74697
   C       17.48958       -14.51100        -7.88806
   S       16.81523       -14.45676        -6.26325
   C       18.54816       -15.40097        -8.17290
   C       19.42346       -15.37115        -9.21621
   C       20.16981       -16.61715        -9.55845
   O       20.25292       -17.61386        -8.88039
   C       20.71991       -16.38143       -10.90706
   C       21.38059       -17.24862       -11.72899
   C       21.78966       -16.80610       -13.00696
   C       21.49532       -15.47173       -13.41325
   C       21.89702       -15.04012       -14.69334
   C       22.56397       -15.89136       -15.52903
   C       22.85679       -17.21006       -15.12542
   C       22.47813       -17.65928       -13.89134
   F       23.51068       -18.02242       -15.96543
   F       22.94718       -15.47981       -16.74369
   C       20.81520       -14.59427       -12.53819
   C       20.44309       -15.04039       -11.29846
   C       19.77371       -14.36011       -10.19200
   C       19.74247       -13.00057       -10.02115
   C       19.30405       -12.35867        -8.84701
   N       18.98051       -11.79050        -7.90315
   C       20.23625       -12.07886       -10.96920
   N       20.62417       -11.28631       -11.70209
   H        2.98816         0.09435        -1.02287
   H        6.56736        -4.27527        -3.55680
   H        8.47202        -6.95080        -0.00175
   H       12.43553       -10.97306        -2.56390
   H       12.70061        -9.98202        -7.29822
   H       17.06039       -13.57153        -9.79553
   H       18.65032       -16.25824        -7.51431
   H       21.58778       -18.25850       -11.40934
   H       21.68384       -14.03303       -15.01602
   H       22.70943       -18.67130       -13.59807
   H       20.59421       -13.59394       -12.87458
*
