# ORCA input file
# SCF done       -210.276459027065          0.000437220527
! CAM-B3LYP def2-SVP def2/J RIJCOSX Grid4 TightSCF
%maxcore 5000
%tddft
    Mode sTDDFT
    Ethresh 5.0
    maxcore 5000
end

%pal
  nprocs 6
  end
* xyz 0 1
   C        3.65660        -1.11295         3.11884
   C        4.80199        -0.76542         2.45933
   F        5.64462         0.12803         2.99691
   C        5.11258        -1.33893         1.21065
   F        6.24324        -0.97934         0.58517
   C        4.27376        -2.25389         0.63889
   C        3.08680        -2.63377         1.29449
   C        2.76984        -2.05264         2.55601
   C        1.58160        -2.41570         3.23141
   C        0.74000        -3.33550         2.66425
   C        1.07130        -3.91888         1.41215
   C        2.20558        -3.58370         0.73178
   C        0.03101        -4.89652         1.03241
   O        0.01832        -5.52843        -0.00755
   C       -0.92224        -4.92637         2.15781
   C       -0.53220        -3.90024         3.10783
   C       -1.23910        -3.46342         4.19980
   C       -2.51686        -3.90851         4.59952
   N       -3.56151        -4.18735         4.98827
   C       -0.79164        -2.44786         5.07028
   N       -0.48538        -1.63368         5.81997
   C       -1.94550        -5.81520         2.39624
   C       -2.46599        -6.86420         1.62825
   C       -2.21287        -7.28285         0.32613
   C       -2.96328        -8.39552        -0.01159
   C       -3.81935        -8.85500         1.03027
   S       -3.68801        -7.87601         2.43162
   C       -4.47393        -9.97615         0.53539
   C       -4.00848       -10.17362        -0.78725
   N       -3.09119        -9.21329        -1.10519
   C       -2.41353        -9.06371        -2.36307
   C       -4.56875       -11.28792        -1.41473
   C       -5.45268       -11.94730        -0.58543
   S       -5.61656       -11.18680         0.99300
   C       -6.17716       -13.13130        -0.87451
   C       -7.03077       -13.81775        -0.03712
   C       -7.53730       -14.96779        -0.64721
   C       -7.06635       -15.15996        -1.96610
   S       -5.99464       -13.90019        -2.44974
   C       -7.63400       -16.34596        -2.42468
   C       -8.43465       -16.84562        -1.37276
   N       -8.37977       -15.99111        -0.30451
   C       -9.02000       -16.18015         0.96738
   C       -9.05861       -18.05854        -1.67489
   C       -8.74439       -18.48934        -2.94619
   S       -7.66796       -17.38520        -3.79919
   C       -9.16649       -19.68539        -3.58040
   C       -8.84494       -20.11325        -4.85155
   C       -9.41259       -21.35748        -5.13556
   C      -10.17532       -21.88528        -4.06576
   S      -10.19118       -20.82029        -2.70858
   C      -10.64813       -23.12290        -4.48295
   C      -10.17023       -23.31527        -5.80536
   N       -9.42962       -22.22701        -6.18901
   C       -8.72790       -22.08761        -7.43463
   C      -10.57050       -24.51874        -6.36931
   C      -11.30858       -25.28838        -5.48078
   S      -11.57254       -24.46473        -3.93875
   C      -11.87740       -26.54553        -5.76326
   C      -12.33851       -27.49104        -4.89196
   C      -13.33696       -28.49174        -5.34051
   O      -13.66659       -28.73495        -6.47982
   C      -13.88166       -29.07676        -4.09513
   C      -14.91007       -29.95972        -3.93848
   C      -15.27922       -30.36012        -2.63403
   C      -14.57493       -29.83158        -1.51363
   C      -14.95457       -30.22919        -0.21610
   C      -15.98191       -31.11277        -0.03898
   C      -16.67582       -31.63677        -1.14734
   C      -16.33297       -31.26929        -2.41828
   F      -17.68036       -32.50167        -0.94423
   F      -16.34053       -31.49018         1.19643
   C      -13.50654       -28.92569        -1.70726
   C      -13.16260       -28.55930        -2.97986
   C      -12.10052       -27.69167        -3.48203
   C      -10.94524       -27.38494        -2.80816
   C       -9.81589       -26.82574        -3.44002
   N       -8.86241       -26.42539        -3.93924
   C      -10.72664       -27.68861        -1.45112
   N      -10.51025       -27.90300        -0.34401
   H        3.43292        -0.66317         4.07360
   H        4.52606        -2.68466        -0.31746
   H        1.37355        -1.95925         4.18524
   H        2.42934        -4.04012        -0.22053
   H       -2.42514        -5.72590         3.36410
   H       -1.50533        -6.77989        -0.30603
   H       -2.13876       -10.04450        -2.75174
   H       -1.51230        -8.47197        -2.21436
   H       -3.05164        -8.56024        -3.09500
   H       -4.35554       -11.61934        -2.41453
   H       -7.24929       -13.48690         0.96195
   H       -9.97873       -16.67663         0.82182
   H       -9.18822       -15.21134         1.43506
   H       -8.40341       -16.79194         1.63251
   H       -9.70049       -18.61645        -1.01767
   H       -8.22284       -19.53799        -5.51278
   H       -9.37655       -22.38418        -8.25988
   H       -7.83145       -22.71369        -7.44883
   H       -8.43643       -21.04787        -7.56739
   H      -10.31523       -24.86435        -7.35438
   H      -12.04704       -26.76154        -6.81395
   H      -15.43619       -30.34865        -4.79698
   H      -14.43079       -29.84026         0.64309
   H      -16.87438       -31.67935        -3.25641
   H      -12.99171       -28.53505        -0.84383
*
