# ORCA input file
# SCF done       -302.374070609531          0.000715983363
! CAM-B3LYP def2-SVP def2/J RIJCOSX Grid4 TightSCF
%maxcore 5000
%tddft
    Mode sTDDFT
    Ethresh 5.0
    maxcore 5000
end

%pal
  nprocs 6
  end
* xyz 0 1
   C       -3.11931         2.04430        -2.21726
   C       -1.84920         2.51561        -2.03794
   F       -1.50619         3.72342        -2.50630
   C       -0.88560         1.74112        -1.36181
   F        0.35344         2.22755        -1.20163
   C       -1.20588         0.50552        -0.87377
   C       -2.50603        -0.00855        -1.04345
   C       -3.48178         0.77362        -1.72673
   C       -4.79280         0.27757        -1.91113
   C       -5.11425        -0.96486        -1.43163
   C       -4.13257        -1.74081        -0.75828
   C       -2.86180        -1.28605        -0.55692
   C       -4.71262        -3.04209        -0.36461
   O       -4.15374        -3.88320         0.30697
   C       -6.06973        -3.06539        -0.95794
   C       -6.35180        -1.73677        -1.47892
   C       -7.57008        -1.25055        -1.87386
   C       -7.77318         0.06195        -2.34972
   N       -7.99871         1.11406        -2.74987
   C       -8.79309        -1.95298        -1.81206
   N       -9.83208        -2.44017        -1.76999
   C       -6.88627        -4.14162        -1.17776
   C       -6.75549        -5.49544        -0.80388
   C       -5.92023        -6.13372         0.08309
   C       -6.09908        -7.52772         0.13126
   C       -5.41172        -8.45914         0.94651
   C       -4.35229        -8.07710         1.85306
   C       -4.09582        -8.58674         3.09840
   C       -2.95524        -8.02895         3.70287
   C       -2.32271        -7.10938         2.92075
   S       -3.14429        -6.90097         1.41366
   C       -1.09610        -6.32656         3.22142
   C       -5.78698        -9.78899         0.80588
   C       -6.78794       -10.23076        -0.09510
   C       -7.51723        -9.29789        -0.86147
   C       -7.13339        -7.96746        -0.74074
   S       -7.85024        -6.63286        -1.58772
   C       -8.61073        -9.72428        -1.70847
   C       -9.56542       -10.66366        -1.43222
   C      -10.50270       -10.82806        -2.47044
   C      -10.26820       -10.02525        -3.54405
   S       -8.87368        -9.02914        -3.28425
   C      -11.03816        -9.92408        -4.81067
   C       -6.86039       -11.64243        -0.15087
   C       -5.98254       -12.27105         0.68409
   S       -5.02532       -11.13668         1.61216
   C       -5.76657       -13.67149         0.82704
   C       -4.94618       -14.30129         1.71606
   C       -4.91040       -15.70814         1.56044
   C       -4.13230       -16.63725         2.28129
   C       -3.38375       -16.23073         3.45099
   C       -3.77644       -15.36543         4.43453
   C       -2.81467       -15.20029         5.45008
   C       -1.68369       -15.92958         5.24841
   S       -1.79199       -16.85479         3.78592
   C       -0.46742       -16.00649         6.09863
   C       -4.14672       -17.94529         1.81156
   C       -4.92823       -18.37183         0.70841
   C       -5.75837       -17.45586         0.03065
   C       -5.72045       -16.14081         0.48329
   S       -6.56505       -14.80119        -0.24826
   C       -6.58998       -17.82674        -1.09564
   C       -7.84558       -17.37378        -1.39056
   C       -8.36045       -17.89229        -2.59497
   C       -7.50143       -18.72903        -3.23711
   S       -6.02603       -18.90487        -2.34478
   C       -7.69370       -19.45120        -4.52149
   C       -4.76738       -19.75562         0.45753
   C       -3.90016       -20.37135         1.31096
   S       -3.24433       -19.26747         2.50008
   C       -3.48182       -21.73251         1.29288
   C       -2.65850       -22.36197         2.18064
   C       -2.39486       -23.71214         1.85291
   C       -1.62055       -24.64159         2.57712
   C       -0.92347       -24.27121         3.79187
   C       -0.20312       -23.14076         4.05575
   C        0.33137       -23.11335         5.35952
   C        0.01687       -24.21220         6.09820
   S       -0.94535       -25.32531         5.18219
   C        0.37878       -24.52126         7.50549
   C       -1.58573       -25.93340         2.07247
   C       -2.27142       -26.34398         0.90029
   C       -3.04360       -25.41065         0.17166
   C       -3.06777       -24.11234         0.67137
   S       -3.98399       -22.79119        -0.00605
   C       -3.78533       -25.76505        -1.01813
   C       -3.97327       -25.01214        -2.14565
   C       -4.79220       -25.63656        -3.10480
   C       -5.24979       -26.85876        -2.71612
   S       -4.65551       -27.27137        -1.14253
   C       -6.13311       -27.79584        -3.45694
   C       -2.01999       -27.69819         0.59948
   C       -1.21865       -28.33599         1.51383
   S       -0.66834       -27.23686         2.76411
   C       -0.78987       -29.68420         1.44128
   C       -0.22522       -30.44647         2.41654
   C        0.59331       -31.63280         2.05307
   O        0.62209       -32.20181         0.98647
   C        1.41030       -31.91408         3.25407
   C        2.41868       -32.82022         3.41168
   C        3.08890       -32.89356         4.65368
   C        2.70007       -32.02131         5.71170
   C        3.37777       -32.09668         6.94519
   C        4.39142       -32.99600         7.12093
   C        4.77447       -33.85837         6.07455
   C        4.13746       -33.80962         4.86646
   F        5.77361       -34.72975         6.27458
   F        5.03393       -33.06565         8.29525
   C        1.64560       -31.09895         5.52274
   C        1.00803       -31.04934         4.31254
   C       -0.11967       -30.24828         3.84730
   C       -1.05786       -29.65089         4.64693
   C       -2.30551       -29.20537         4.15803
   N       -3.35626       -28.90783         3.80539
   C       -0.91837       -29.50185         6.04010
   N       -0.83157       -29.33460         7.17264
   H       -3.84524         2.65069        -2.73607
   H       -0.45666        -0.07552        -0.35916
   H       -5.50626         0.89028        -2.43790
   H       -2.13654        -1.89598        -0.04006
   H       -7.75709        -3.95776        -1.79757
   H       -5.20806        -5.59731         0.68019
   H       -4.72984        -9.30672         3.58364
   H       -2.61410        -8.30061         4.68607
   H       -0.74555        -6.55238         4.22566
   H       -1.29828        -5.25847         3.14851
   H       -0.30423        -6.56397         2.51102
   H       -9.62043       -11.18865        -0.49525
   H      -11.32620       -11.51821        -2.41942
   H      -11.84458       -10.65348        -4.81507
   H      -10.39306       -10.10497        -5.66986
   H      -11.46546        -8.92747        -4.92018
   H       -7.50998       -12.18293        -0.81520
   H       -4.35449       -13.76304         2.43427
   H       -4.74370       -14.89585         4.45253
   H       -2.96062       -14.56283         6.30416
   H       -0.56775       -15.34026         6.95206
   H        0.41824       -15.72224         5.53123
   H       -0.31737       -17.02296         6.46201
   H       -8.40191       -16.71794        -0.74559
   H       -9.33814       -17.64975        -2.97193
   H       -8.67626       -19.22683        -4.92963
   H       -7.61071       -20.52780        -4.37378
   H       -6.93563       -19.15565        -5.24670
   H       -5.27312       -20.29184        -0.32438
   H       -2.27382       -21.87180         3.05619
   H       -0.02395       -22.37131         3.32597
   H        0.93104       -22.30284         5.73453
   H        1.07006       -23.77324         7.88633
   H        0.84193       -25.50436         7.57663
   H       -0.51064       -24.53013         8.13576
   H       -3.50655       -24.05666        -2.30224
   H       -5.03486       -25.19177        -4.05348
   H       -6.40964       -27.36585        -4.41656
   H       -7.03967       -28.00104        -2.88814
   H       -5.62830       -28.74613        -3.62952
   H       -2.42849       -28.21124        -0.25185
   H       -0.84039       -30.14168         0.45810
   H        2.70299       -33.47240         2.59993
   H        3.09465       -31.44602         7.75778
   H        4.44254       -34.47662         4.07540
   H        1.37200       -30.44563         6.33605
*
