# ORCA input file
# SCF done       -233.198523202925          0.000928946902
! CAM-B3LYP def2-SVP def2/J RIJCOSX Grid4 TightSCF
%maxcore 5000
%tddft
    Mode sTDDFT
    Ethresh 5.0
    maxcore 5000
end

%pal
  nprocs 6
  end
* xyz 0 1
   C       -4.83437        -1.48731         0.17128
   C       -5.47424        -2.51447        -0.47110
   C       -6.86907        -2.71980        -0.43721
   N       -7.99387        -2.94638        -0.42490
   C       -4.81259        -3.43095        -1.31529
   N       -4.31261        -4.16898        -2.03837
   C       -5.50088        -0.34676         0.79774
   C       -4.59269         0.72801         0.86395
   C       -4.96136         1.95480         1.37066
   C       -6.27288         2.11493         1.83221
   C       -7.17914         1.04314         1.78042
   C       -6.79541        -0.19122         1.26029
   C       -8.56738         1.25894         2.28093
   O       -8.98513         2.32006         2.66691
   O       -9.29247         0.13896         2.24619
   C      -10.63888         0.25649         2.68593
   C       -6.62987         3.38462         2.35478
   N       -6.78077         4.44762         2.75462
   C       -3.27574         0.29480         0.33678
   O       -2.27933         0.95980         0.19114
   C       -3.42690        -1.16371         0.08297
   C       -2.31777        -1.93449        -0.09851
   C       -2.16657        -3.32871         0.06376
   C       -1.13830        -4.10429        -0.45315
   C       -1.25410        -5.44191        -0.09498
   C       -2.35780        -5.68574         0.74961
   S       -3.25706        -4.28015         1.07490
   C       -2.39587        -7.06337         1.05856
   C       -1.33066        -7.70361         0.39927
   C       -0.57075        -6.70161        -0.33729
   C        0.54778        -6.90439        -1.08883
   C        1.12569        -8.18323        -1.24315
   N        1.59491        -9.22249        -1.35912
   C        1.21095        -5.84639        -1.74775
   N        1.75878        -4.99116        -2.27870
   C       -1.30502        -9.07917         0.61603
   C       -2.34013        -9.49007         1.44257
   S       -3.35395        -8.15394         1.95759
   C       -2.64471       -10.81268         1.85573
   C       -2.07747       -11.99324         1.40398
   C       -2.65651       -13.10994         2.00460
   C       -3.66173       -12.77579         2.93000
   S       -3.90071       -11.09205         3.05258
   C       -4.20053       -13.96986         3.46699
   C       -3.54715       -15.06428         2.87292
   C       -2.54944       -14.56050         1.94051
   C       -1.70164       -15.29419         1.16566
   C       -1.69999       -16.70553         1.19077
   N       -1.70177       -17.85149         1.21576
   C       -0.77451       -14.69033         0.28872
   N       -0.02454       -14.19939        -0.42547
   C       -4.03548       -16.29194         3.31760
   C       -5.04575       -16.13833         4.25059
   S       -5.39722       -14.44841         4.58515
   C       -5.79493       -17.15244         4.89824
   C       -6.73227       -16.98332         5.90338
   C       -7.30442       -18.19350         6.28713
   C       -6.80489       -19.29197         5.56248
   S       -5.61595       -18.83314         4.42307
   C       -7.46113       -20.46856         5.99482
   C       -8.37978       -20.10590         7.01204
   C       -8.30426       -18.66963         7.22921
   C       -9.01886       -17.92199         8.11748
   C       -9.97560       -18.49206         8.98463
   N      -10.75544       -18.94735         9.69047
   C       -8.84802       -16.52503         8.22192
   N       -8.70490       -15.39024         8.30110
   C       -9.08579       -21.19126         7.48863
   C       -8.74057       -22.38464         6.83854
   S       -7.49178       -22.12713         5.61715
   C       -9.35614       -23.60158         7.16058
   C       -9.21762       -24.84470         6.59375
   C       -9.92859       -26.04709         6.98787
   C      -10.74299       -26.21848         8.07510
   C      -11.39092       -27.43129         8.39787
   N      -11.94846       -28.38149         8.71808
   C      -11.03987       -25.23295         9.04179
   N      -11.31983       -24.49156         9.87229
   C       -9.58961       -27.09012         6.01862
   C       -8.66028       -26.57058         5.09782
   C       -8.37889       -25.16076         5.43510
   O       -7.60841       -24.42025         4.85052
   C       -8.15223       -27.32724         4.06516
   C       -8.58819       -28.65061         3.93890
   C       -9.52136       -29.17586         4.84700
   C      -10.02254       -28.39861         5.88974
   C       -9.96285       -30.59029         4.67506
   O       -9.48490       -31.34967         3.87210
   O      -10.94735       -30.91212         5.51553
   C      -11.43183       -32.24535         5.42887
   C       -8.06307       -29.41216         2.86356
   N       -7.57245       -29.90591         1.95355
   H       -4.25769         2.77257         1.40891
   H       -7.51086        -0.99678         1.23860
   H      -11.08534        -0.72526         2.55283
   H      -11.16638         1.00502         2.09169
   H      -10.66921         0.55684         3.73521
   H       -1.40663        -1.38915        -0.32702
   H       -0.37392        -3.69634        -1.08968
   H       -0.57806        -9.75422         0.20418
   H       -1.29766       -12.02683         0.66596
   H       -3.68632       -17.25513         2.99114
   H       -6.97211       -16.02199         6.32120
   H       -9.82990       -21.15727         8.26484
   H      -10.06668       -23.51190         7.97357
   H       -7.43904       -26.90935         3.37081
   H      -10.73710       -28.83704         6.56589
   H      -12.16217       -32.35163         6.22651
   H      -10.61198       -32.95493         5.55565
   H      -11.89599       -32.41563         4.45538
*
