# ORCA input file
# SCF done       -203.614832327519          0.000734394333
! CAM-B3LYP def2-SVP def2/J RIJCOSX Grid4 TightSCF
%maxcore 5000
%tddft
    Mode sTDDFT
    Ethresh 5.0
    maxcore 5000
end

%pal
  nprocs 6
  end
* xyz 0 1
   C       -5.58125         0.15248         0.89279
   C       -6.36574        -0.34211        -0.11499
   C       -7.09704        -1.54339        -0.03355
   N       -7.73043        -2.50096        -0.00922
   C       -6.61431         0.34180        -1.32441
   N       -6.85885         0.85487        -2.32110
   C       -5.00840         1.49682         0.91860
   C       -4.73471         1.84944         2.25457
   C       -4.22462         3.09452         2.56896
   C       -3.97851         3.98626         1.53604
   C       -4.22362         3.64596         0.20755
   C       -4.74421         2.38888        -0.10317
   C       -3.92331         4.60526        -0.89861
   C       -5.05236         0.71688         3.13876
   O       -5.00092         0.66262         4.34546
   C       -5.40534        -0.40739         2.21761
   C       -5.42048        -1.67724         2.70257
   C       -5.35929        -2.88845         1.97458
   C       -4.89004        -3.09748         0.68721
   C       -4.98514        -4.42884         0.30297
   C       -5.52732        -5.25356         1.30891
   S       -5.88849        -4.38776         2.72844
   C       -5.62911        -6.57151         0.79647
   C       -5.15464        -6.57778        -0.52722
   C       -4.73979        -5.22958        -0.88234
   C       -4.26627        -4.79163        -2.08397
   C       -4.08069        -5.66069        -3.17946
   N       -3.92352        -6.37216        -4.06459
   C       -3.93948        -3.43534        -2.29523
   N       -3.67764        -2.32993        -2.45144
   C       -5.24350        -7.82958        -1.13153
   C       -5.78530        -8.77663        -0.27996
   S       -6.18137        -8.10936         1.29584
   C       -6.06156       -10.13480        -0.57689
   C       -6.65486       -11.08036         0.24021
   C       -6.82051       -12.30150        -0.41264
   C       -6.34292       -12.28314        -1.73450
   S       -5.68681       -10.77022        -2.17304
   C       -6.59548       -13.54596        -2.32514
   C       -7.23720       -14.36437        -1.37933
   C       -7.38784       -13.61395        -0.14168
   C       -7.94899       -14.04651         1.02313
   C       -8.47502       -15.34860         1.16188
   N       -8.90295       -16.40650         1.27168
   C       -8.03771       -13.21978         2.16332
   N       -8.10907       -12.54767         3.08933
   C       -7.56978       -15.62006        -1.88659
   C       -7.18536       -15.76113        -3.20796
   S       -6.38729       -14.32258        -3.82992
   C       -7.40604       -16.86660        -4.06705
   C       -7.00533       -16.99108        -5.38626
   C       -7.44820       -18.18310        -5.95423
   C       -8.19111       -18.97376        -5.05968
   S       -8.33100       -18.25344        -3.51491
   C       -8.63475       -20.13278        -5.74106
   C       -8.17193       -20.07251        -7.07394
   C       -7.38810       -18.86112        -7.24136
   C       -6.72143       -18.44815        -8.35623
   C       -6.67891       -19.20452        -9.54805
   N       -6.60707       -19.81112       -10.51786
   C       -5.99707       -17.23701        -8.38235
   N       -5.41161       -16.25126        -8.39924
   C       -8.61300       -21.13333        -7.85445
   C       -9.41303       -22.01188        -7.13817
   S       -9.57412       -21.51869        -5.44700
   C      -10.06137       -23.20577        -7.52185
   C      -10.40935       -23.62052        -8.77576
   C      -10.99043       -24.91474        -9.08770
   C      -10.98052       -26.02664        -8.28777
   C      -10.38453       -26.10448        -7.01091
   N       -9.90510       -26.24910        -5.97739
   C      -11.54164       -27.26861        -8.65362
   N      -11.98181       -28.30267        -8.88727
   C      -11.51066       -24.85141       -10.45028
   C      -11.19943       -23.59223       -10.99315
   C      -10.48083       -22.77760       -10.00101
   O      -10.10190       -21.63539       -10.14730
   C      -11.56521       -23.25635       -12.28241
   C      -12.24895       -24.19584       -13.03760
   C      -12.57209       -25.44721       -12.51701
   C      -12.20086       -25.77686       -11.21303
   C      -13.33510       -26.43813       -13.33628
   H       -4.02808         3.35610         3.59721
   H       -3.58398         4.96579         1.76316
   H       -4.91969         2.12724        -1.13480
   H       -3.73812         5.60478        -0.51476
   H       -4.74957         4.64178        -1.60563
   H       -3.03862         4.27566        -1.44353
   H       -5.41920        -1.75950         3.78500
   H       -4.46774        -2.31481         0.08373
   H       -4.94269        -8.05451        -2.13915
   H       -6.95453       -10.87031         1.25129
   H       -8.07193       -16.39817        -1.34008
   H       -6.42921       -16.23798        -5.89327
   H       -8.37465       -21.27159        -8.89187
   H      -10.34503       -23.84179        -6.69109
   H      -11.31311       -22.28544       -12.68010
   H      -12.53903       -23.95669       -14.05019
   H      -12.46278       -26.74614       -10.82002
   H      -13.26064       -26.21124       -14.39654
   H      -14.38854       -26.41376       -13.05573
   H      -12.96947       -27.44702       -13.15945
*
