# ORCA input file
# SCF done       -183.281317242837          0.000502665318
! CAM-B3LYP def2-SVP def2/J RIJCOSX Grid4 TightSCF
%maxcore 5000
%tddft
    Mode sTDDFT
    Ethresh 5.0
    maxcore 5000
end

%pal
  nprocs 6
  end
* xyz 0 1
   C       -4.57492         3.84977         4.78352
   C       -5.59604         4.42284         4.07157
   C       -6.63687         5.16960         4.65794
   N       -7.49579         5.79776         5.08844
   C       -5.76587         4.24150         2.68346
   N       -5.96206         4.07309         1.56482
   C       -4.51350         3.74225         6.23619
   C       -3.64873         2.65902         6.57185
   C       -3.43343         2.29134         7.86872
   C       -4.07658         3.00675         8.90421
   C       -4.93033         4.09907         8.57464
   C       -5.13913         4.45526         7.22240
   C       -5.56305         4.80533         9.61764
   C       -5.36625         4.44979        10.92416
   C       -4.52560         3.37444        11.24795
   C       -3.89485         2.66848        10.25973
   C       -3.08272         2.08438         5.33735
   O       -2.35727         1.12333         5.22224
   C       -3.54294         2.98811         4.24434
   C       -2.92389         2.95823         3.03513
   C       -2.89431         3.95704         2.03011
   C       -2.59326         3.76186         0.69607
   C       -2.61766         4.95071        -0.02789
   C       -2.88840         6.08035         0.75734
   S       -3.14186         5.66035         2.40435
   C       -2.89462         7.25742         0.00784
   C       -2.64102         7.02576        -1.34956
   S       -2.37781         5.34414        -1.70739
   C       -2.65547         8.18560        -2.12792
   C       -2.91350         9.30706        -1.37159
   S       -3.14596         8.93278         0.32778
   C       -3.00474        10.65537        -1.80954
   C       -3.19190        11.77316        -1.02831
   C       -3.22918        12.94140        -1.79153
   C       -3.07755        12.72346        -3.16541
   S       -2.87701        11.04634        -3.51696
   C       -3.12063        13.91471        -3.89725
   C       -3.29662        15.03359        -3.07539
   S       -3.41966        14.62321        -1.38915
   C       -3.33901        16.24261        -3.77151
   C       -3.20366        16.05864        -5.12912
   S       -3.01649        14.36588        -5.55910
   C       -3.20144        17.06279        -6.13389
   C       -3.15388        16.89727        -7.50063
   C       -3.16982        18.12114        -8.17365
   C       -3.22286        19.22997        -7.31980
   S       -3.26326        18.75215        -5.66312
   C       -3.22748        20.43994        -8.01487
   C       -3.18720        20.25168        -9.40867
   S       -3.13620        18.56609        -9.85541
   C       -3.18505        21.43182       -10.13968
   C       -3.22004        22.54927        -9.32056
   S       -3.25463        22.10469        -7.60732
   C       -3.18844        23.93276        -9.58402
   C       -3.24530        24.63808       -10.75484
   C       -3.14575        26.08863       -10.81673
   C       -2.70419        26.92884        -9.82714
   C       -2.61053        28.32971        -9.96747
   N       -2.50978        29.47268       -10.01040
   C       -2.23610        26.54186        -8.55352
   N       -1.82081        26.32098        -7.50532
   C       -3.51963        26.50638       -12.16224
   C       -3.74403        25.34145       -12.94753
   C       -3.53815        24.13976       -12.12067
   O       -3.61684        22.99174       -12.50903
   C       -4.09989        25.41395       -14.26331
   C       -4.25582        26.68266       -14.86513
   C       -4.04091        27.85446       -14.08390
   C       -3.67048        27.74660       -12.72378
   C       -4.20255        29.11559       -14.69275
   C       -4.55778        29.21653       -16.01027
   C       -4.76898        28.06206       -16.77870
   C       -4.62112        26.82220       -16.21840
   H       -2.78172         1.46291         8.10357
   H       -5.78243         5.29197         6.99811
   H       -6.21180         5.63044         9.36276
   H       -5.85805         4.99507        11.71574
   H       -4.38046         3.10813        12.28423
   H       -3.24673         1.83934        10.50333
   H       -2.30881         2.08337         2.84596
   H       -2.40698         2.79210         0.27282
   H       -2.48658         8.21498        -3.18868
   H       -3.29273        11.73634         0.04085
   H       -3.46515        17.20753        -3.31577
   H       -3.11285        15.93511        -7.97726
   H       -3.16428        21.49477       -11.21198
   H       -3.11985        24.52534        -8.67862
   H       -4.26155        24.51374       -14.83763
   H       -3.52131        28.65286       -12.15893
   H       -4.03759        30.00135       -14.09695
   H       -4.67787        30.18712       -16.46782
   H       -5.04921        28.16004       -17.81688
   H       -4.78228        25.92970       -16.80531
*
