# ORCA input file
# SCF done       -285.477836691641          0.000978651468
! CAM-B3LYP def2-SVP def2/J RIJCOSX Grid4 TightSCF
%maxcore 5000
%tddft
    Mode sTDDFT
    Ethresh 5.0
    maxcore 5000
end

%pal
  nprocs 6
  end
* xyz 0 1
   C        3.85203         2.51042        -3.20531
   C        4.22891         1.78022        -2.10637
   C        5.16641         0.72693        -2.14193
   N        5.91742        -0.14082        -2.09624
   C        3.74355         1.94468        -0.79290
   N        3.39735         1.99936         0.30163
   C        4.34062         2.29361        -4.56355
   C        3.67173         3.19828        -5.43606
   C        3.92262         3.23177        -6.77685
   C        4.87823         2.34405        -7.32013
   C        5.55320         1.43525        -6.45557
   C        5.26948         1.42362        -5.07019
   C        6.50519         0.55414        -7.00733
   C        6.77942         0.56937        -8.34789
   C        6.11516         1.46588        -9.19792
   C        5.18443         2.33408        -8.69490
   C        2.73874         4.02600        -4.65457
   O        1.99136         4.87844        -5.09503
   C        2.89821         3.60430        -3.25098
   C        2.28715         4.16853        -2.16519
   C        1.37156         5.23565        -2.07670
   C        0.88044         5.66507        -0.85567
   C       -0.01460         6.73989        -0.94072
   C       -0.64793         7.43230         0.12238
   C       -0.53737         6.96434         1.48517
   C       -0.56995         5.67220         1.93543
   C       -0.44472         5.56420         3.33324
   C       -0.30963         6.76561         3.95922
   S       -0.35107         8.07080         2.81914
   C       -0.14886         7.03922         5.41078
   C       -1.37645         8.55660        -0.23286
   C       -1.54914         8.98773        -1.57575
   C       -0.94641         8.27885        -2.63418
   C       -0.18942         7.16217        -2.28512
   S        0.71553         6.17672        -3.39935
   C       -1.06247         8.68572        -4.01920
   C       -1.15675         7.88707        -5.12484
   C       -1.19099         8.60648        -6.33523
   C       -1.10687         9.95410        -6.16967
   S       -0.99788        10.36511        -4.48986
   C       -1.09835        11.01938        -7.20613
   C       -2.39208        10.12060        -1.65350
   C       -2.83357        10.56487        -0.44112
   S       -2.23884         9.58665         0.88104
   C       -3.66834        11.68848        -0.18282
   C       -4.06325        12.16950         1.03088
   C       -4.87973        13.32280         0.94905
   C       -5.47228        14.04540         2.00415
   C       -5.24485        13.72785         3.39861
   C       -6.13875        13.78805         4.43118
   C       -5.57296        13.46899         5.68113
   C       -4.24532        13.17859         5.61824
   S       -3.66528        13.28176         3.98863
   C       -3.32016        12.81801         6.72411
   C       -6.28387        15.11512         1.63856
   C       -6.51662        15.49574         0.29465
   C       -5.93646        14.76230        -0.76060
   C       -5.11623        13.70205        -0.39628
   S       -4.29838        12.63969        -1.50988
   C       -6.20767        15.09746        -2.14356
   C       -7.40445        15.44069        -2.70728
   C       -7.31743        15.69752        -4.09012
   C       -6.05903        15.55782        -4.58804
   S       -4.94515        15.08989        -3.34411
   C       -5.58787        15.75615        -5.98369
   C       -7.30830        16.66568         0.20562
   C       -7.69521        17.15991         1.41864
   S       -7.08643        16.19592         2.74502
   C       -8.51739        18.29790         1.67299
   C       -9.12348        19.10882         0.75475
   C       -9.90706        20.13384         1.33267
   C      -10.65514        21.12574         0.66530
   C      -10.59018        21.26943        -0.77455
   C       -9.48579        21.20403        -1.57740
   C       -9.77637        21.39769        -2.94252
   C      -11.09826        21.60416        -3.19063
   S      -12.01976        21.57451        -1.72282
   C      -11.77148        21.84120        -4.49396
   C      -11.44141        21.94679         1.46429
   C      -11.45572        21.86801         2.88356
   C      -10.63103        20.93355         3.55557
   C       -9.90858        20.06368         2.74932
   S       -8.88368        18.77166         3.31455
   C      -10.55578        20.91300         4.99799
   C      -10.54015        21.97986         5.85576
   C      -10.44720        21.60576         7.20874
   C      -10.39900        20.25805         7.39719
   S      -10.45036        19.41523         5.88428
   C      -10.31096        19.50466         8.67483
   C      -12.37564        22.76377         3.45802
   C      -13.03605        23.54658         2.54105
   S      -12.50971        23.19082         0.89533
   C      -14.02942        24.54107         2.67163
   C      -14.73882        24.98128         3.75469
   C      -15.77280        26.00290         3.66244
   C      -15.97827        26.88151         2.63054
   C      -16.99656        27.85799         2.62147
   N      -17.80213        28.67275         2.54702
   C      -15.19851        26.99022         1.45931
   N      -14.61204        27.17204         0.48849
   C      -16.52899        25.98872         4.90894
   C      -15.89661        25.08292         5.80467
   C      -14.72941        24.46965         5.14678
   O      -13.94181        23.71199         5.67708
   C      -16.37062        24.86182         7.06523
   C      -17.53267        25.54233         7.49216
   C      -18.18010        26.44191         6.59723
   C      -17.65899        26.65659         5.30041
   C      -19.34395        27.10918         7.03025
   C      -19.84468        26.90046         8.28640
   C      -19.20526        26.01556         9.16731
   C      -18.07382        25.35120         8.77858
   H        3.40000         3.92905        -7.41482
   H        5.80112         0.72488        -4.44437
   H        7.01421        -0.13426        -6.34870
   H        7.51046        -0.10961        -8.76071
   H        6.34459         1.46532       -10.25310
   H        4.66950         3.02692        -9.34443
   H        2.53848         3.75510        -1.19557
   H        1.19809         5.22272         0.07162
   H       -0.72645         4.82745         1.28882
   H       -0.45384         4.62432         3.85606
   H       -0.09951         6.10340         5.96210
   H       -0.98808         7.62478         5.78607
   H        0.76220         7.60697         5.59685
   H       -1.23197         6.81632        -5.07648
   H       -1.27190         8.13523        -7.29860
   H       -0.14480        11.54791        -7.20617
   H       -1.88312        11.75037        -7.01409
   H       -1.25508        10.58183        -8.18923
   H       -2.67800        10.59990        -2.57177
   H       -3.77645        11.69541         1.95172
   H       -7.18052        14.01711         4.29821
   H       -6.13591        13.45686         6.59755
   H       -3.88081        12.66960         7.64399
   H       -2.58810        13.60990         6.88573
   H       -2.77509        11.90487         6.48856
   H       -8.32838        15.46371        -2.15711
   H       -8.16393        15.97277        -4.69439
   H       -6.43243        15.96946        -6.63466
   H       -5.07769        14.86485        -6.34684
   H       -4.88448        16.58721        -6.03807
   H       -7.55708        17.13812        -0.72588
   H       -9.04165        18.95937        -0.30546
   H       -8.48926        21.06713        -1.19642
   H       -9.02617        21.38771        -3.71355
   H      -11.04380        21.80475        -5.30115
   H      -12.25697        22.81678        -4.50172
   H      -12.53781        21.08790        -4.67482
   H      -10.55165        23.00268         5.52589
   H      -10.41939        22.31543         8.01632
   H      -10.27726        20.19674         9.51277
   H       -9.41594        18.88332         8.69353
   H      -11.17309        18.84890         8.79453
   H      -12.58043        22.81640         4.51074
   H      -14.28557        24.99768         1.72214
   H      -15.86813        24.17105         7.72613
   H      -18.17523        27.34097         4.64639
   H      -19.83192        27.79065         6.34888
   H      -20.73682        27.41642         8.60846
   H      -19.61402        25.86260        10.15503
   H      -17.57724        24.66780         9.45201
*
