# ORCA input file
# SCF done       -199.493909662588          0.000863721383
! CAM-B3LYP def2-SVP def2/J RIJCOSX Grid4 TightSCF
%maxcore 5000
%tddft
    Mode sTDDFT
    Ethresh 5.0
    maxcore 5000
end

%pal
  nprocs 6
  end
* xyz 0 1
   C       -1.54180        -3.18552         5.55425
   C       -2.64136        -3.38817         6.32750
   S       -2.36995        -4.66152         7.46260
   C       -0.74258        -4.93941         6.89621
   C        0.12962        -5.97885         7.48548
   C       -0.46496        -4.07268         5.88334
   C        0.67188        -3.79436         5.01359
   O        1.75468        -4.35847         5.00556
   C        0.24564        -2.68262         4.14261
   C       -1.12501        -2.31830         4.47043
   C       -1.92087        -1.36233         3.89561
   C       -3.24152        -1.15093         4.34430
   N       -4.31729        -0.96829         4.69912
   C       -1.56316        -0.50894         2.83430
   N       -1.33662         0.21375         1.97102
   C        1.02083        -2.07350         3.19182
   C        2.33894        -2.33832         2.78378
   C        2.96908        -1.57859         1.79126
   C        4.25576        -2.01041         1.53005
   C        4.61810        -3.12138         2.32831
   S        3.38819        -3.61612         3.39695
   C        5.94063        -3.49169         1.98418
   C        6.41628        -2.62497         0.98378
   C        5.37113        -1.66589         0.66228
   C        5.43081        -0.66696        -0.26363
   C        4.34935         0.20764        -0.50329
   N        3.47551         0.92173        -0.70372
   C        6.58388        -0.44539        -1.04629
   N        7.51996        -0.26881        -1.68434
   C        7.71579        -2.92284         0.57841
   C        8.22973        -4.01424         1.25670
   S        7.09180        -4.67694         2.41974
   C        9.50473        -4.60983         1.08650
   C        9.99003        -5.75464         1.69302
   C       11.27984        -6.06402         1.26378
   C       11.78169        -5.14053         0.33015
   S       10.66688        -3.89732        -0.02381
   C       13.08251        -5.54940        -0.05618
   C       13.40039        -6.73769         0.62484
   C       12.28125        -7.09657         1.48239
   C       12.18868        -8.17460         2.31188
   C       11.04477        -8.41538         3.10239
   N       10.11484        -8.60863         3.74448
   C       13.22986        -9.11983         2.42999
   N       14.07461        -9.88926         2.52180
   C       14.66089        -7.23220         0.29312
   C       15.30585        -6.42596        -0.62770
   S       14.33768        -5.03304        -1.09087
   C       16.58619        -6.62025        -1.20367
   C       17.26203        -5.76328        -2.05579
   C       18.49578        -6.28144        -2.44224
   C       18.75725        -7.54574        -1.88589
   S       17.49087        -8.08908        -0.87519
   C       20.02006        -7.98851        -2.34623
   C       20.56161        -7.00265        -3.19621
   C       19.62481        -5.89533        -3.27741
   C       19.76734        -4.73609        -3.98057
   C       18.77688        -3.73082        -3.97152
   N       17.96951        -2.91687        -3.96326
   C       20.90861        -4.46622        -4.76596
   N       21.82944        -4.24696        -5.41239
   C       21.79875        -7.36451        -3.71808
   C       22.22827        -8.59804        -3.25173
   S       21.03791        -9.34051        -2.18294
   C       23.40836        -9.26296        -3.65898
   C       24.05203       -10.32295        -3.10130
   C       24.96368       -11.14634        -3.95912
   O       25.38791       -10.84649        -5.05159
   C       25.15056       -12.38718        -3.20538
   C       25.76487       -13.58339        -3.41631
   S       25.54850       -14.60122        -2.01383
   C       24.65129       -13.39326        -1.16633
   C       24.51520       -12.27344        -1.92327
   C       23.95581       -10.94341        -1.79299
   C       23.66586       -10.33393        -0.59955
   C       23.69366       -11.04923         0.61404
   N       23.69782       -11.63222         1.60223
   C       23.41440        -8.95609        -0.46209
   N       23.24695        -7.82890        -0.32003
   C       26.52148       -14.03436        -4.60489
   H       -3.58897        -2.88808         6.31900
   H       -0.31963        -6.96544         7.37445
   H        0.27608        -5.79927         8.55023
   H        1.09403        -5.96542         6.98266
   H        0.57062        -1.24850         2.65195
   H        2.47837        -0.75528         1.30268
   H        8.27050        -2.38956        -0.17269
   H        9.41732        -6.32519         2.40199
   H       15.10173        -8.12817         0.69203
   H       16.86173        -4.81444        -2.36513
   H       22.38857        -6.76393        -4.38692
   H       23.81708        -8.92878        -4.60869
   H       24.28268       -13.60331        -0.18224
   H       26.51621       -13.24506        -5.35323
   H       26.07580       -14.93480        -5.02667
   H       27.55190       -14.26751        -4.33785
*
