# ORCA input file
# SCF done       -230.167539808771          0.000662568713
! CAM-B3LYP def2-SVP def2/J RIJCOSX Grid4 TightSCF
%maxcore 5000
%tddft
    Mode sTDDFT
    Ethresh 5.0
    maxcore 5000
end

%pal
  nprocs 6
  end
* xyz 0 1
   C       -5.70257        -7.28149         5.36768
   C       -6.43908        -8.25363         5.98549
   F       -6.42067        -8.36244         7.31888
   C       -7.22837        -9.14883         5.23302
   F       -7.93994       -10.08162         5.87457
   C       -7.26479        -9.06737         3.86872
   C       -6.50588        -8.08323         3.20400
   C       -5.71790        -7.16735         3.96330
   C       -4.97779        -6.15137         3.31548
   C       -5.01101        -6.05979         1.94797
   C       -5.76835        -7.00711         1.19665
   C       -6.50713        -7.98840         1.79608
   C       -5.61342        -6.73106        -0.23064
   O       -5.98556        -7.40036        -1.17320
   C       -4.79895        -5.48751        -0.31605
   C       -4.41606        -5.09560         1.03013
   C       -3.70546        -3.97809         1.36875
   C       -3.27831        -3.00920         0.43459
   N       -2.95449        -2.17595        -0.28445
   C       -3.35099        -3.63694         2.69208
   N       -3.03377        -3.31774         3.74708
   C       -4.44956        -4.96823        -1.51796
   C       -5.05371        -5.44084        -2.72701
   C       -4.42805        -5.96154        -3.83177
   N       -3.02852        -6.07288        -3.98722
   O       -2.60891        -6.48273        -5.04945
   O       -2.33554        -5.74212        -3.03980
   C       -5.41382        -6.47516        -4.75622
   C       -6.64019        -6.31685        -4.20627
   C       -6.50394        -5.63071        -2.94134
   C       -7.48278        -5.07083        -2.16032
   C       -7.33064        -3.89336        -1.34155
   C       -8.55117        -3.50841        -0.90211
   C       -9.52833        -4.47858        -1.34439
   N      -10.88741        -4.39893        -0.97324
   O      -11.65441        -5.25754        -1.37374
   O      -11.21579        -3.46113        -0.27151
   C       -8.90570        -5.45402        -2.09645
   C       -9.47562        -6.68274        -2.55366
   C       -8.78085        -7.81944        -2.70369
   C       -9.39503        -9.08917        -3.16371
   O       -8.85301        -9.55269        -4.40955
   C       -8.26834       -10.71068        -3.81105
   C       -8.84852       -10.35899        -2.43599
   C       -9.83731       -11.22068        -1.76122
   C      -10.01498       -11.25936        -0.39439
   N       -9.40430       -10.44259         0.56688
   O       -8.85991        -9.40990         0.19794
   O       -9.42941       -10.80600         1.72954
   C      -10.90818       -12.34162        -0.03764
   C      -11.23416       -13.00211        -1.16709
   C      -10.63548       -12.32488        -2.30392
   C      -10.92152       -12.63050        -3.61587
   C      -11.07917       -11.70288        -4.70056
   C      -11.71111       -12.33240        -5.72083
   C      -11.85346       -13.73026        -5.40029
   N      -12.54342       -14.59784        -6.25341
   O      -12.86788       -14.17223        -7.35240
   O      -12.76989       -15.73942        -5.87335
   C      -11.32418       -13.96802        -4.13004
   C      -10.90732       -15.12099        -3.44339
   C      -10.70958       -16.43774        -3.79619
   C      -10.67090       -17.15114        -5.00393
   C      -10.52358       -16.83293        -6.33061
   C      -10.92255       -17.89493        -7.32052
   O      -11.11263       -19.05771        -7.06954
   C      -11.03573       -17.19709        -8.61039
   C      -11.51486       -17.66200        -9.80104
   C      -11.56374       -16.78592       -10.90878
   C      -11.11939       -15.43973       -10.75719
   C      -11.18361       -14.56724       -11.86161
   C      -11.66270       -15.01130       -13.06253
   C      -12.09799       -16.34410       -13.21286
   C      -12.05067       -17.21385       -12.15879
   F      -12.55883       -16.75165       -14.40060
   F      -11.72127       -14.18342       -14.11116
   C      -10.62273       -14.98825        -9.51365
   C      -10.57742       -15.85763        -8.45710
   C      -10.14013       -15.66662        -7.07690
   C       -9.43978       -14.57794        -6.61049
   C       -8.82508       -14.50867        -5.34894
   N       -8.29718       -14.38404        -4.33651
   C       -9.14640       -13.42803        -7.37714
   N       -8.89737       -12.44873        -7.91939
   H       -5.11147        -6.60162         5.96119
   H       -7.88241        -9.75389         3.30847
   H       -4.40496        -5.46578         3.91928
   H       -7.10727        -8.65748         1.19969
   H       -3.66500        -4.22694        -1.60931
   H       -5.16528        -6.91436        -5.70357
   H       -7.58036        -6.55834        -4.66198
   H       -6.41199        -3.35081        -1.22580
   H       -8.80126        -2.64246        -0.31912
   H      -10.55021        -6.67924        -2.68783
   H       -7.72599        -7.86373        -2.47706
   H      -10.48795        -9.00708        -3.20316
   H       -7.17697       -10.67440        -3.85126
   H       -8.61778       -11.63675        -4.27106
   H       -8.07590       -10.07305        -1.72032
   H      -11.23469       -12.53663         0.96556
   H      -11.95762       -13.78991        -1.24571
   H      -10.84764       -10.65858        -4.66859
   H      -12.06153       -11.90150        -6.63973
   H      -10.64955       -14.91798        -2.41112
   H      -10.54943       -17.08451        -2.93958
   H      -10.82342       -18.22229        -4.87555
   H      -11.86019       -18.68018        -9.89411
   H      -10.85533       -13.54436       -11.76350
   H      -12.39003       -18.22937       -12.29000
   H      -10.31258       -13.95996        -9.42454
*
