# ORCA input file
# SCF done       -235.140303057089          0.000491646733
! CAM-B3LYP def2-SVP def2/J RIJCOSX Grid4 TightSCF
%maxcore 5000
%tddft
    Mode sTDDFT
    Ethresh 5.0
    maxcore 5000
end

%pal
  nprocs 6
  end
* xyz 0 1
   C        5.11013         8.12854        -4.18231
   C        3.87277         8.59145        -4.53737
   C        3.64027         9.64897        -5.43558
   N        3.40424        10.51606        -6.14975
   C        2.70531         7.93880        -4.09885
   N        1.77238         7.32323        -3.83517
   C        6.38285         8.41680        -4.81998
   C        7.29914         7.37172        -4.49305
   C        8.57304         7.36237        -4.98496
   C        8.99268         8.41220        -5.83229
   C        8.08265         9.46156        -6.15434
   C        6.76838         9.44616        -5.63472
   C        8.52032        10.50266        -6.99831
   C        9.79252        10.50935        -7.50181
   C       10.68719         9.47629        -7.18435
   C       10.29543         8.45039        -6.36797
   C        6.65323         6.40893        -3.58392
   O        7.08587         5.36811        -3.15033
   C        5.34345         7.04263        -3.24433
   C        4.69431         6.74342        -2.10044
   C        3.72220         7.54355        -1.40729
   C        3.77994         8.89890        -1.10886
   N        4.75977         9.84851        -1.44088
   O        5.70056         9.51841        -2.15173
   O        4.62046        10.97403        -0.99530
   C        2.66582         9.25898        -0.26440
   C        1.87003         8.17934        -0.13143
   C        2.45715         7.06945        -0.85766
   C        1.83599         5.85867        -1.09744
   C        2.41837         4.57546        -1.30420
   C        1.45197         3.62277        -1.14494
   C        0.19058         4.26102        -0.93221
   N       -1.01829         3.56135        -0.81289
   O       -2.05181         4.20184        -0.67140
   O       -0.97104         2.34368        -0.84055
   C        0.37381         5.64505        -0.97263
   C       -0.61589         6.63222        -1.10882
   C       -0.35369         7.83141        -1.72557
   C       -1.13638         8.98359        -1.89519
   N       -2.43845         9.25704        -1.55748
   C       -3.40132         8.37326        -0.94137
   C       -3.21360         8.29916         0.57154
   C       -2.79880        10.58383        -1.88182
   O       -3.90094        11.04685        -1.69488
   C       -1.58969        11.15255        -2.44700
   C       -0.60332        10.15865        -2.45706
   C        0.61750        10.75113        -2.97112
   O        1.74142        10.31743        -3.10729
   N        0.25613        12.08040        -3.28652
   C        1.25868        13.00967        -3.75447
   C        1.35588        13.03180        -5.27824
   C       -1.05186        12.33733        -2.97258
   C       -1.79405        13.53770        -3.07760
   C       -1.52342        14.64427        -3.81433
   C       -2.35244        15.80084        -3.85855
   S       -2.38170        16.70379        -5.34164
   C       -3.59545        17.78156        -4.72417
   C       -3.90330        17.47102        -3.39122
   C       -3.19993        16.35590        -2.89802
   C       -3.28100        15.96208        -1.47952
   O       -2.45734        15.25875        -0.92825
   C       -4.44542        16.52111        -0.75893
   C       -4.79143        15.97502         0.47367
   C       -5.87166        16.47028         1.18187
   C       -6.60842        17.52998         0.67345
   C       -6.26233        18.09351        -0.54144
   C       -5.18838        17.59159        -1.27119
   C       -4.83771        18.24037        -2.55185
   O       -5.28482        19.32819        -2.86478
   C       -4.26818        18.77384        -5.47075
   C       -3.99045        19.25766        -6.71447
   C       -4.76355        20.27605        -7.40940
   C       -6.05277        20.64052        -7.13303
   C       -6.75455        21.63623        -7.84595
   N       -7.36615        22.44272        -8.38670
   C       -6.87897        20.02673        -6.16455
   N       -7.62892        19.54154        -5.44413
   C       -3.95175        20.75822        -8.51954
   C       -2.76515        19.97003        -8.58893
   C       -2.77491        18.98127        -7.50416
   O       -1.94054        18.12051        -7.28892
   C       -1.81931        20.17209        -9.55352
   C       -2.01723        21.19531       -10.50668
   C       -3.19510        21.99521       -10.43756
   C       -4.15896        21.75987        -9.43010
   C       -3.37920        23.01592       -11.39195
   C       -2.44753        23.23595       -12.37005
   C       -1.28949        22.44701       -12.43830
   C       -1.07865        21.44841       -11.52642
   H        9.25499         6.56463        -4.73012
   H        6.09730        10.25603        -5.87692
   H        7.82824        11.29564        -7.24074
   H       10.11753        11.31134        -8.14768
   H       11.68798         9.49802        -7.58909
   H       10.98014         7.65269        -6.11953
   H        5.01897         5.84163        -1.59151
   H        2.54379        10.23546         0.16160
   H        0.98561         8.10419         0.46928
   H        3.46198         4.38068        -1.44801
   H        1.57874         2.55663        -1.17796
   H       -1.60910         6.35478        -0.78565
   H        0.60974         7.93306        -2.21015
   H       -3.33630         7.38433        -1.39935
   H       -4.38472         8.79814        -1.16287
   H       -2.21160         7.96352         0.82800
   H       -3.93189         7.60276         0.99397
   H       -3.37471         9.27939         1.01366
   H        2.21400        12.67014        -3.34286
   H        1.03250        13.99808        -3.34790
   H        1.75724        12.08787        -5.63917
   H        2.02689        13.82776        -5.58876
   H        0.38212        13.19089        -5.73706
   H       -2.71484        13.50109        -2.51128
   H       -0.69908        14.65761        -4.51235
   H       -4.19999        15.15626         0.85536
   H       -6.13766        16.03281         2.13226
   H       -7.44944        17.91954         1.22679
   H       -6.81504        18.92582        -0.95096
   H       -5.10311        19.21625        -4.93829
   H       -0.93158        19.55817        -9.58888
   H       -5.03812        22.38387        -9.40150
   H       -4.27306        23.61957       -11.33667
   H       -2.59845        24.01943       -13.09727
   H       -0.56533        22.63440       -13.21678
   H       -0.18893        20.83783       -11.57391
*
