# ORCA input file
# SCF done       -217.964804176413          0.000482924299
! CAM-B3LYP def2-SVP def2/J RIJCOSX Grid4 TightSCF
%maxcore 5000
%tddft
    Mode sTDDFT
    Ethresh 5.0
    maxcore 5000
end

%pal
  nprocs 6
  end
* xyz 0 1
   C        2.31441        -1.49871         3.34292
   C        2.39213        -0.15229         3.12256
   F        3.40792         0.55611         3.63268
   C        1.40856         0.50822         2.35860
   F        1.50957         1.82945         2.16068
   C        0.36132        -0.18804         1.82371
   C        0.25439        -1.57698         2.03160
   C        1.24695        -2.24617         2.80517
   C        1.16120        -3.63966         3.02632
   C        0.11577        -4.34392         2.48770
   C       -0.86984        -3.66654         1.72067
   C       -0.81562        -2.32210         1.48996
   C       -1.88758        -4.62857         1.25640
   O       -2.83751        -4.35620         0.55296
   C       -1.50207        -5.93581         1.84195
   C       -0.22935        -5.76171         2.53023
   C        0.56289        -6.74291         3.06490
   C        0.31047        -8.13210         3.03490
   N        0.20591        -9.27569         3.03970
   C        1.79788        -6.49585         3.70313
   N        2.80500        -6.36532         4.23796
   C       -2.21613        -7.10179         1.86704
   C       -3.42036        -7.47690         1.22899
   C       -4.19231        -6.86455         0.26878
   C       -5.29995        -7.63065        -0.13860
   C       -5.37739        -8.88193         0.54214
   S       -4.06634        -9.06291         1.66592
   C       -6.37613        -9.79448         0.29058
   C       -7.33093        -9.46786        -0.67672
   C       -7.25426        -8.21839        -1.35748
   C       -6.26289        -7.30353        -1.10023
   S       -8.53785        -8.05280        -2.52444
   C       -9.16146        -9.64096        -2.11118
   C       -8.41953       -10.24374        -1.12361
   C      -10.29645       -10.14953        -2.81832
   C      -10.89830       -11.40859        -2.58499
   C      -11.99900       -11.89860        -3.37803
   N      -12.51918       -13.11247        -3.09185
   C      -12.03260       -13.81479        -2.12467
   C      -10.94973       -13.33380        -1.34612
   N      -10.42202       -12.18014        -1.58285
   F      -10.44395       -14.05016        -0.34467
   F      -12.58671       -15.00092        -1.88356
   C      -12.55411       -11.15561        -4.44692
   C      -11.98344        -9.88163        -4.64336
   C      -10.88572        -9.39224        -3.85106
   N      -10.51501        -8.16790        -4.23164
   S      -11.44100        -7.68391        -5.44517
   N      -12.35966        -8.99037        -5.56274
   C      -13.59725       -11.61765        -5.30966
   C      -14.23799       -12.83325        -5.31218
   C      -15.19637       -12.96843        -6.33695
   C      -15.28371       -11.79653        -7.14143
   S      -14.17527       -10.56919        -6.59465
   C      -16.14065       -11.70461        -8.21191
   C      -16.93814       -12.81344        -8.51053
   C      -16.85620       -13.98169        -7.69942
   C      -16.00266       -14.07298        -6.62482
   S      -17.94124       -15.21646        -8.26314
   C      -18.45313       -14.20629        -9.60395
   C      -17.84507       -12.97448        -9.57681
   C      -19.43966       -14.70550       -10.49098
   C      -19.75111       -14.30676       -11.75343
   C      -21.07685       -14.69269       -12.31761
   O      -21.84065       -15.51420       -11.86910
   C      -21.26759       -13.81955       -13.49289
   C      -22.36548       -13.68723       -14.29326
   C      -22.33279       -12.75599       -15.35525
   C      -21.15950       -11.97394       -15.56346
   C      -21.13610       -11.04102       -16.61970
   C      -22.22483       -10.89331       -17.43229
   C      -23.38416       -11.66830       -17.22639
   C      -23.43826       -12.58079       -16.21034
   F      -24.43677       -11.50093       -18.03748
   F      -22.20062       -10.00656       -18.43537
   C      -20.03512       -12.13843       -14.72267
   C      -20.08592       -13.05394       -13.70555
   C      -19.08512       -13.45914       -12.72027
   C      -17.73493       -13.26761       -12.85118
   C      -16.76669       -13.88527       -12.03370
   N      -15.93578       -14.38885       -11.42309
   C      -17.14847       -12.49026       -13.87136
   N      -16.62295       -11.85109       -14.66660
   H        3.07640        -1.98836         3.92908
   H       -0.38344         0.33126         1.24108
   H        1.92566        -4.11255         3.62087
   H       -1.57935        -1.83618         0.90190
   H       -1.81018        -7.89269         2.48748
   H       -3.96676        -5.89338        -0.13112
   H       -6.42353       -10.73723         0.81157
   H       -6.21396        -6.36095        -1.62101
   H       -8.64922       -11.21883        -0.73913
   H      -14.01809       -13.60638        -4.60141
   H      -16.19011       -10.81427        -8.81804
   H      -15.94625       -14.96553        -6.02283
   H      -18.06905       -12.18866       -10.27703
   H      -20.08575       -15.48043       -10.08838
   H      -23.24721       -14.28458       -14.11825
   H      -20.25532       -10.44288       -16.79374
   H      -24.33278       -13.16618       -16.06611
   H      -19.16363       -11.52832       -14.89893
*
