# ORCA input file
# SCF done       -146.679137710638          0.000782640427
! CAM-B3LYP def2-SVP def2/J RIJCOSX Grid4 TightSCF
%maxcore 5000
%tddft
    Mode sTDDFT
    Ethresh 5.0
    maxcore 5000
end

%pal
  nprocs 6
  end
* xyz 0 1
   C       -2.19927        -4.09892        -2.27699
   S       -2.53081        -3.46590        -0.71187
   C       -0.96858        -3.94912        -0.14079
   C       -0.59992        -3.72571         1.28831
   C       -1.79981        -3.82475         2.22633
   C       -0.24434        -4.57108        -1.13064
   C       -0.97192        -4.66384        -2.36557
   C       -0.45021        -5.31079        -3.61179
   C       -0.73849        -6.81364        -3.61601
   C        1.09232        -5.10166        -0.99015
   C        2.06858        -4.58537        -0.22112
   C        3.32925        -5.17630        -0.12830
   C        4.42865        -5.68139        -0.03621
   C        5.66602        -6.30038         0.05409
   S        5.88347        -7.93163        -0.52660
   C        7.56611        -7.89917        -0.05746
   C        7.90489        -6.68715         0.50727
   C        6.83769        -5.79143         0.57235
   C        8.37440        -9.00389        -0.25666
   C        9.05309        -9.99485        -0.44343
   C        9.82612       -11.12847        -0.64744
   C       11.16554       -11.15770        -0.43667
   C       12.00107       -12.28612        -0.61747
   S       13.73637       -12.11570        -0.40496
   C       14.07604       -13.78561        -0.77212
   C       12.87868       -14.45290        -1.04132
   C       11.72947       -13.60348        -0.95380
   N       10.63476       -14.36394        -1.23097
   C       11.06161       -15.64754        -1.48450
   N       10.11669       -16.63363        -1.79748
   O        8.94548       -16.27672        -1.82398
   O       10.50967       -17.76309        -2.01972
   C       12.43332       -15.74567        -1.38069
   C       15.35133       -14.29456        -0.78269
   C       16.49420       -14.71652        -0.78997
   C       17.76335       -15.25394        -0.82440
   S       18.00321       -16.95673        -1.13562
   C       19.73240       -16.75706        -1.01673
   C       20.07090       -15.44446        -0.75234
   C       18.96829       -14.60166        -0.64233
   C       20.58243       -17.83757        -1.18007
   C       21.30316       -18.80343        -1.32984
   C       22.12814       -19.91211        -1.49615
   C       23.47474       -19.82107        -1.50275
   C       24.40682       -20.89919        -1.64568
   S       25.94367       -20.70711        -0.83079
   C       26.47283       -22.27203        -1.33678
   C       27.79890       -22.76578        -0.86982
   C       28.94659       -22.09788        -1.63118
   C       25.52796       -22.89363        -2.11319
   C       24.34694       -22.10880        -2.29569
   C       23.26036       -22.53164        -3.23668
   C       23.78096       -22.61748        -4.67355
   C       25.65125       -24.24482        -2.65007
   C       26.74227       -24.77737        -3.18256
   H       -2.94298        -4.01068        -3.04428
   H       -0.14631        -2.73428         1.40026
   H        0.14950        -4.46928         1.57412
   H       -2.53352        -3.05663         1.99242
   H       -1.48051        -3.69538         3.25774
   H       -2.27675        -4.79749         2.12985
   H        0.62509        -5.14054        -3.69305
   H       -0.93113        -4.85380        -4.47922
   H       -0.27994        -7.29981        -2.75794
   H       -0.34715        -7.27046        -4.52213
   H       -1.81082        -6.99046        -3.57282
   H        1.32070        -5.97699        -1.58421
   H        1.92766        -3.66934         0.33574
   H        8.89785        -6.47343         0.86129
   H        6.90450        -4.79856         0.98075
   H        9.29370       -12.00239        -0.99795
   H       11.65910       -10.25194        -0.11062
   H        9.66121       -14.10564        -1.24507
   H       13.01872       -16.62947        -1.52931
   H       21.09185       -15.12446        -0.64315
   H       19.02680       -13.54731        -0.43838
   H       21.62101       -20.86250        -1.59151
   H       23.92037       -18.85122        -1.31584
   H       27.84309       -23.84897        -0.99919
   H       27.90920       -22.54200         0.19470
   H       28.86166       -22.28597        -2.69921
   H       29.90274       -22.48200        -1.28451
   H       28.92496       -21.02195        -1.47232
   H       22.44241       -21.81459        -3.21385
   H       22.86851       -23.50639        -2.93306
   H       24.15478       -21.64691        -4.99272
   H       22.97784       -22.91560        -5.34367
   H       24.58836       -23.34081        -4.75409
   H       24.74379       -24.83502        -2.59777
   H       27.65533       -24.22156        -3.30554
   H       26.75036       -25.79134        -3.54583
*
