# ORCA input file
# SCF done       -203.056910125068          0.000430558413
! CAM-B3LYP def2-SVP def2/J RIJCOSX Grid4 TightSCF
%maxcore 5000
%tddft
    Mode sTDDFT
    Ethresh 5.0
    maxcore 5000
end

%pal
  nprocs 6
  end
* xyz 0 1
   C        3.37125         2.79663         5.74161
   C        2.81609         4.17695         5.80495
   O        2.61669         4.90539         4.85720
   C        2.53966         4.41959         7.23278
   C        3.01737         3.34456         7.98292
   C        3.67944         2.39413         7.09239
   C        4.62622         1.48129         7.49075
   C        5.44772         0.73078         6.63663
   N        6.21310         0.11338         6.03816
   C        4.98544         1.25061         8.83620
   N        5.32514         1.01227         9.90638
   C        2.83948         3.31031         9.37191
   C        2.19944         4.35944         9.97918
   C        1.72460         5.47232         9.25135
   C        1.89020         5.51263         7.83580
   C        1.41036         6.62281         7.11079
   C        0.79489         7.65466         7.76355
   C        0.63062         7.62130         9.15798
   C        1.08317         6.55535         9.88605
   C        3.44401         2.16689         4.53643
   C        3.57870         0.78267         4.27250
   C        3.30693        -0.27206         5.12679
   C        3.64964        -1.49419         4.47389
   C        3.46618        -2.77394         5.01001
   N        3.32586        -3.82239         5.45670
   C        4.20639        -1.19562         3.24510
   C        4.14624         0.21873         3.05685
   C        4.58354         0.86629         1.90127
   C        5.68497         0.32986         1.04884
   C        5.64137         1.01326        -0.15446
   C        4.63521         2.00259        -0.05369
   C        4.02869         1.94302         1.21028
   C        4.29655         2.90441        -1.07130
   N        4.02520         3.63963        -1.91033
   C        6.69695        -0.51447         1.51718
   C        6.94993        -0.72636         2.85437
   C        7.87841        -1.62261         3.39523
   N        8.05222        -1.68601         4.76014
   C        8.98612        -2.62350         5.03059
   C        9.68915        -3.25078         6.04684
   C       10.56361        -4.15799         5.42052
   N       10.39418        -4.09191         4.05320
   C        9.43340        -3.16887         3.78186
   C        8.73971        -2.55553         2.76261
   C       11.49932        -5.00946         6.05445
   C       12.45006        -5.73392         5.40499
   C       13.45881        -6.53956         6.00338
   C       14.73488        -6.59137         5.50543
   C       15.57650        -7.27664         6.44793
   C       16.96375        -7.42359         6.30909
   N       18.09867        -7.53893         6.18346
   C       14.80626        -7.72492         7.49174
   C       13.43815        -7.38607         7.22553
   C       12.34544        -7.95804         7.82988
   C       12.36886        -8.96140         8.92044
   C       11.09094        -9.08521         9.39281
   C       10.21842        -8.26543         8.58403
   C       10.95971        -7.63340         7.62190
   C        8.82985        -8.16655         8.75178
   N        7.69507        -8.06718         8.88964
   C       13.45457        -9.80752         9.29468
   C       13.55849       -10.43880        10.49170
   C       14.57523       -11.39051        10.73824
   C       14.74055       -12.21320        11.80945
   C       16.04846       -12.90789        11.98294
   O       16.91681       -12.99870        11.14223
   C       16.05202       -13.39411        13.37216
   C       14.81598       -13.12190        13.95992
   C       13.92710       -12.52180        12.96559
   C       12.56081       -12.47893        13.06025
   C       11.68323       -12.14360        12.00917
   N       10.90392       -11.92276        11.19511
   C       11.83210       -12.86794        14.20528
   N       11.17734       -13.15257        15.10397
   C       14.58099       -13.45091        15.30150
   C       15.57958       -14.05958        16.01640
   C       16.83215       -14.37030        15.44340
   C       17.08896       -14.02742        14.08412
   C       18.34227       -14.33309        13.51551
   C       19.30115       -14.95890        14.26340
   C       19.05261       -15.30146        15.60231
   C       17.84696       -15.01326        16.18083
   H        3.18275         2.47033         9.95367
   H        2.04787         4.34578        11.04879
   H        1.54177         6.63636         6.04033
   H        0.42924         8.50573         7.20883
   H        0.14123         8.44727         9.65251
   H        0.95736         6.52793        10.95876
   H        3.31936         2.82108         3.68136
   H        2.85582        -0.21128         6.10039
   H        4.52365        -1.90790         2.50781
   H        6.30105         0.88555        -0.99169
   H        3.18708         2.53850         1.50868
   H        7.35611        -0.95307         0.77905
   H        6.42463        -0.12646         3.58427
   H        7.50805        -1.12346         5.40896
   H        9.61199        -3.09601         7.10385
   H       10.87375        -4.66687         3.38319
   H        8.81924        -2.71808         1.70700
   H       11.46391        -5.01793         7.13465
   H       12.57729        -5.58846         4.33809
   H       15.09060        -6.11865         4.60869
   H       15.17203        -8.22745         8.36423
   H       10.74838        -9.76297        10.15266
   H       10.56772        -6.99996         6.85250
   H       14.18358       -10.03991         8.52909
   H       12.86244       -10.19795        11.28009
   H       15.36900       -11.45702         9.99919
   H       13.63855       -13.22217        15.77128
   H       15.41370       -14.31672        17.05262
   H       18.52192       -14.06490        12.48642
   H       20.26009       -15.19515        13.82700
   H       19.82422       -15.79579        16.17382
   H       17.65338       -15.27597        17.21080
*
