# ORCA input file
# SCF done       -200.319601533866          0.000303594135
! CAM-B3LYP def2-SVP def2/J RIJCOSX Grid4 TightSCF
%maxcore 5000
%tddft
    Mode sTDDFT
    Ethresh 5.0
    maxcore 5000
end

%pal
  nprocs 6
  end
* xyz 0 1
   C        6.28125       -12.60184       -15.38707
   O        7.15550       -11.76120       -15.47615
   N        5.71239       -13.14185       -16.52436
   C        6.17593       -12.68831       -17.82505
   C        4.71551       -14.09232       -16.54081
   O        4.26078       -14.51915       -17.57646
   N        4.26274       -14.53176       -15.31535
   C        3.21100       -15.53432       -15.36619
   C        4.71446       -14.10456       -14.07486
   O        4.21895       -14.57557       -13.06763
   C        5.77203       -13.10159       -14.09891
   C        6.38940       -12.53436       -13.00826
   C        6.26721       -12.67296       -11.61671
   S        7.35048       -11.68593       -10.64413
   C        6.70107       -12.31843        -9.17402
   C        5.69665       -13.24365        -9.43781
   C        5.45801       -13.43872       -10.78667
   C        7.17508       -11.91075        -7.90125
   C        6.73719       -12.33690        -6.66035
   C        7.41485       -11.74692        -5.59964
   C        8.39138       -10.85132        -5.99894
   S        8.45922       -10.74679        -7.73163
   C        9.25774       -10.09270        -5.16964
   S       10.42988        -8.99222        -5.83719
   C       10.99539        -8.55286        -4.24920
   C       10.29102        -9.24105        -3.27796
   C        9.32196       -10.09803        -3.78867
   C       12.03590        -7.61685        -4.03281
   C       12.69447        -6.93788        -5.00262
   C       13.73343        -6.00646        -4.76506
   S       14.29730        -5.66392        -3.13589
   C       15.43684        -4.54379        -3.75759
   C       15.38504        -4.43744        -5.14750
   C       14.42493        -5.26500        -5.71268
   C       16.40379        -3.43593        -5.64290
   C       17.43672        -4.10004        -6.55738
   C       15.72770        -2.26041        -6.35374
   C       17.02594        -3.00258        -4.33436
   C       16.43355        -3.67486        -3.26373
   S       17.10388        -3.22238        -1.75401
   C       18.19729        -2.10663        -2.55865
   C       18.01821        -2.11900        -3.93534
   C       19.08803        -1.35391        -1.75444
   C       19.96752        -0.42467        -2.20416
   C       20.83752         0.31982        -1.36511
   S       21.88533         1.52748        -2.06176
   C       22.53460         1.93952        -0.50035
   C       21.95677         1.16463         0.48588
   C       21.01235         0.26364         0.00572
   C       23.51307         2.95297        -0.34618
   C       24.09270         3.74503        -1.31705
   C       25.01597         4.65648        -0.81116
   C       25.16673         4.58489         0.55892
   S       24.13436         3.35000         1.23094
   C       26.00468         5.35917         1.39782
   S       27.02304         6.61115         0.76139
   C       27.62593         6.99975         2.35553
   C       27.04282         6.17422         3.30572
   C       26.14249         5.26358         2.77353
   C       28.57003         8.03538         2.52280
   C       29.09553         8.41887         3.72131
   C       30.02952         9.46593         3.81892
   C       30.62824         9.94875         4.95725
   C       30.37136         9.41548         6.29141
   O       29.61176         8.49653         6.53726
   N       31.06640        10.03196         7.32270
   C       31.95302        11.08110         7.19458
   O       32.50800        11.55367         8.16022
   N       32.16680        11.55265         5.91679
   C       31.56662        11.05893         4.77235
   O       31.82882        11.54798         3.69094
   C       33.09551        12.65656         5.74249
   C       30.86276         9.55328         8.68028
   H        6.98147       -11.97755       -17.65877
   H        5.35574       -12.21474       -18.36397
   H        6.52973       -13.54056       -18.40409
   H        3.57815       -16.42666       -15.87240
   H        2.35928       -15.14316       -15.92142
   H        2.92473       -15.76900       -14.34426
   H        7.14906       -11.81284       -13.30431
   H        5.16090       -13.75657        -8.66013
   H        4.72186       -14.11413       -11.17959
   H        5.94814       -13.05525        -6.53339
   H        7.20443       -11.96127        -4.56804
   H       10.48490        -9.11482        -2.22765
   H        8.68418       -10.70878        -3.17615
   H       12.30347        -7.44949        -2.99671
   H       12.42578        -7.09780        -6.03943
   H       14.21541        -5.34291        -6.76446
   H       16.95368        -4.47285        -7.45721
   H       17.91337        -4.93363        -6.04641
   H       18.20173        -3.38152        -6.84118
   H       15.22177        -2.60754        -7.25124
   H       16.46941        -1.51650        -6.63398
   H       14.99538        -1.79337        -5.69895
   H       18.59610        -1.50541        -4.60179
   H       19.03211        -1.55398        -0.69350
   H       20.02695        -0.20828        -3.26121
   H       22.22443         1.26508         1.52327
   H       20.46957        -0.41351         0.63927
   H       23.84094         3.65328        -2.35871
   H       25.56679         5.35693        -1.41382
   H       27.27310         6.24235         4.35306
   H       25.59219         4.54355         3.35337
   H       28.88415         8.55081         1.62313
   H       28.80094         7.92235         4.63178
   H       30.32299         9.96468         2.90033
   H       33.46663        12.94407         6.72255
   H       32.58129        13.49165         5.26745
   H       33.91789        12.34305         5.09975
   H       30.14796         8.73533         8.63885
   H       30.48076        10.36222         9.30217
   H       31.81016         9.21096         9.09543
*
