# ORCA input file
# SCF done       -156.391709205861          0.000670464158
! CAM-B3LYP def2-SVP def2/J RIJCOSX Grid4 TightSCF
%maxcore 5000
%tddft
    Mode sTDDFT
    Ethresh 5.0
    maxcore 5000
end

%pal
  nprocs 6
  end
* xyz 0 2
   C      -10.95947         2.43266         1.25611
   C      -10.92358         2.54263         2.63224
   C      -11.86312         3.26691         3.39105
   N      -12.58831         3.84224         4.07151
   C       -9.97058         1.94064         3.47114
   N       -9.21887         1.45899         4.19960
   C      -11.98515         3.00021         0.39300
   C      -11.72462         2.60844        -0.94384
   C      -12.52487         2.97888        -1.99521
   C      -13.63970         3.77870        -1.71799
   C      -13.89137         4.16856        -0.38132
   C      -13.08197         3.79237         0.68333
   S      -15.31742         5.15555        -0.26246
   C      -15.55269         5.02998        -1.98589
   C      -14.61262         4.28906        -2.61958
  Br      -17.01626         5.88858        -2.78578
   C      -10.50208         1.77754        -0.98622
   O      -10.00357         1.28341        -1.97280
   C      -10.03131         1.70574         0.41716
   C       -8.89789         1.09393         0.88023
   C       -7.92662         0.31679         0.22986
   O       -7.93474        -0.01011        -1.08875
   C       -6.89297        -0.76257        -1.34419
   C       -6.14661        -0.99522        -0.19878
   N       -5.06910        -1.90373        -0.16761
   O       -4.56204        -2.19971        -1.23193
   O       -4.72457        -2.37687         0.90911
   C       -6.80565        -0.27569         0.85100
   N       -6.45920        -0.14359         2.15109
   C       -5.19604        -0.39909         2.64207
   C       -4.88822        -0.73276         3.90073
   C       -5.86282        -0.89223         5.02157
   C       -3.47328        -1.19343         4.15571
   N       -3.38190        -2.56729         3.69183
   C       -3.56587        -3.65610         4.44693
   C       -3.55487        -3.71938         5.81524
   C       -3.72204        -4.90703         6.53573
   S       -3.94293        -6.44006         5.71053
   C       -4.01552        -7.27477         7.22437
   C       -4.21000        -8.53429         7.69923
   C       -4.18841        -8.51328         9.14491
   C       -4.40864        -9.82355         9.37237
   S       -4.50619       -10.27225         7.60739
   C       -3.94444        -7.12448         9.64492
   C       -3.85680        -6.38412         8.33449
   C       -3.70491        -5.06301         7.94987
   C       -3.53072        -3.98199         8.89200
   S       -4.16981        -2.36414         8.67669
   C       -3.60131        -1.79233        10.19291
   C       -2.94667        -2.79181        10.86211
   C       -2.92540        -4.02079        10.12129
   O       -2.25162        -4.97388        10.80437
   C       -1.85778        -4.37555        11.96520
   N       -1.14834        -5.17711        12.88623
   O       -0.76473        -4.63124        13.90621
   O       -0.98013        -6.34755        12.60068
   C       -2.23906        -3.06647        12.06647
   H      -12.29949         2.66130        -3.00125
   H      -13.31651         4.11704         1.68319
   H      -14.60439         4.10863        -3.67907
   H       -8.68724         1.21472         1.93172
   H       -6.74334        -1.12790        -2.34211
   H       -7.17895         0.12521         2.80955
   H       -4.40868        -0.30902         1.90883
   H       -6.81591        -0.41480         4.81165
   H       -5.45732        -0.46003         5.93511
   H       -6.04339        -1.95091         5.21330
   H       -3.21800        -1.14055         5.21200
   H       -2.75483        -0.59867         3.58621
   H       -3.56199        -2.67043         2.69963
   H       -3.69791        -4.57519         3.89021
   H       -3.40510        -2.82204         6.39290
   H       -4.50901       -10.47205        10.21653
   H       -3.01671        -7.05288        10.21654
   H       -4.75511        -6.74700        10.27255
   H       -3.77620        -0.77668        10.48050
   H       -2.03564        -2.41250        12.88857
*
