# ORCA input file
# SCF done       -211.827681647511          0.000499394656
! CAM-B3LYP def2-SVP def2/J RIJCOSX Grid4 TightSCF
%maxcore 5000
%tddft
    Mode sTDDFT
    Ethresh 5.0
    maxcore 5000
end

%pal
  nprocs 6
  end
* xyz 0 1
   C       -1.88999       -13.98392         1.25025
   C       -0.78541       -14.48581         1.92279
   F       -0.80486       -15.75363         2.34488
   C        0.34272       -13.70035         2.16632
   F        1.38120       -14.22361         2.82662
   C        0.39934       -12.38641         1.72909
   C       -0.69488       -11.88872         1.04890
   C       -1.84014       -12.67116         0.81138
   C       -2.83909       -11.84798         0.12981
   C       -4.18749       -12.08605         0.11343
   C       -5.12849       -11.09500        -0.23572
   N       -5.90648       -10.27885        -0.44873
   C       -4.78231       -13.28736         0.54922
   N       -5.30792       -14.25593         0.86847
   C       -2.18334       -10.61993        -0.25746
   C       -0.88207       -10.54588         0.45514
   O       -0.13003        -9.60040         0.49300
   C       -2.49179        -9.65942        -1.17732
   C       -3.42472        -9.70568        -2.23022
   O       -4.01614       -10.87785        -2.60660
   C       -4.78696       -10.63546        -3.64321
   C       -4.73706        -9.31032        -4.01714
   N       -5.43690        -8.85443        -5.17179
   O       -6.38722        -9.52065        -5.51588
   O       -5.01829        -7.88501        -5.76795
   C       -3.84404        -8.67022        -3.09133
   N       -3.49308        -7.37682        -2.92677
   C       -4.00234        -6.28759        -3.57163
   C       -3.74188        -5.02325        -3.19249
   C       -4.33448        -3.88089        -3.81643
   S       -3.41595        -2.40748        -3.81647
   C       -5.56046        -3.71842        -4.45033
   C       -6.65417        -4.71685        -4.45516
   O       -6.61987        -5.78648        -3.86890
   C       -7.81391        -4.27366        -5.20538
   C       -8.97155        -4.96304        -5.49590
   N       -9.77835        -4.16142        -6.22948
   C      -11.04607        -4.55481        -6.79161
   C      -10.85793        -5.21153        -8.15761
   C       -9.17240        -2.96777        -6.42837
   C       -7.94242        -2.98995        -5.80556
   C       -6.92916        -1.95673        -5.71616
   O       -7.05318        -0.84811        -6.21160
   C       -5.73256        -2.39977        -4.96782
   C       -4.65373        -1.56490        -4.70763
   C       -4.51150        -0.19922        -5.06176
   C       -3.37552         0.51657        -4.89523
   C       -3.27171         1.89847        -5.22019
   O       -4.37657         2.60677        -5.56207
   C       -4.02068         3.85394        -5.78597
   C       -2.66298         4.02801        -5.59699
   N       -2.05945         5.30102        -5.76436
   O       -2.73978         6.14805        -6.30138
   O       -0.92898         5.48072        -5.36006
   C       -2.14992         2.73776        -5.22876
   N       -0.88768         2.25978        -5.00936
   C        0.29108         2.89359        -4.84681
   C        1.44434         2.18935        -4.67359
   C        2.67058         2.81705        -4.41162
   C        3.88084         2.24207        -4.12403
   C        5.09573         3.08808        -4.20246
   O        5.14069         4.29237        -4.30302
   C        6.23507         2.14238        -4.17720
   C        5.74824         0.83616        -4.00145
   C        6.63057        -0.23235        -3.99246
   C        7.98206         0.03650        -4.15186
   C        8.45713         1.33809        -4.31024
   C        7.58069         2.41140        -4.32645
   F        9.77089         1.55103        -4.45442
   F        8.84771        -0.98423        -4.15781
   C        4.29028         0.88781        -3.83828
   C        3.54387        -0.14450        -3.32582
   C        2.18976        -0.08961        -2.94199
   N        1.09646        -0.13774        -2.59072
   C        4.06194        -1.42533        -3.03623
   N        4.40083        -2.49522        -2.79478
   H       -2.73926       -14.62665         1.08382
   H        1.27032       -11.77919         1.91747
   H       -1.85189        -8.78396        -1.14392
   H       -5.33245       -11.44666        -4.08734
   H       -2.88360        -7.18959        -2.13756
   H       -4.62674        -6.48838        -4.42398
   H       -3.03762        -4.81986        -2.39493
   H       -9.25047        -5.96179        -5.22457
   H      -11.67478        -3.66584        -6.88608
   H      -11.52879        -5.25413        -6.10428
   H      -10.38291        -4.51952        -8.84888
   H      -11.82151        -5.50484        -8.56408
   H      -10.23211        -6.09618        -8.06923
   H       -9.63608        -2.17770        -6.98504
   H       -5.38243         0.26181        -5.50725
   H       -2.49570         0.04085        -4.48177
   H       -4.76813         4.57234        -6.06184
   H       -0.85032         1.24989        -4.91169
   H        0.28169         3.97365        -4.84066
   H        1.40467         1.11225        -4.73306
   H        2.69520         3.89878        -4.49362
   H        6.31689        -1.25690        -3.87886
   H        7.94227         3.41929        -4.45324
*
