# ORCA input file
# SCF done       -215.438979657074          0.000959044941
! CAM-B3LYP def2-SVP def2/J RIJCOSX Grid4 TightSCF
%maxcore 5000
%tddft
    Mode sTDDFT
    Ethresh 5.0
    maxcore 5000
end

%pal
  nprocs 6
  end
* xyz 0 1
   C      -11.42042         0.13937         4.39148
   C      -10.88679        -0.64773         5.37724
   C      -11.51981        -1.79407         5.90223
   N      -11.98592        -2.73631         6.36297
   C       -9.65501        -0.41633         6.02633
   N       -8.67802        -0.29168         6.61667
   C      -12.72576        -0.04393         3.77178
   C      -12.96730         1.04053         2.89463
   C      -14.11915         1.15484         2.15448
   C      -15.08306         0.15106         2.28959
   C      -14.83454        -0.92955         3.16990
   C      -13.66847        -1.04600         3.91561
   S      -16.15478        -2.05946         3.18198
   C      -17.00970        -1.07914         2.02130
   C      -16.34398         0.03789         1.64293
  Br      -18.70001        -1.62269         1.41706
   C      -11.81874         1.96745         2.91752
   O      -11.70846         2.97441         2.25344
   C      -10.82798         1.34885         3.83942
   C       -9.52632         1.72208         3.96900
   C       -8.93152         2.95513         3.53060
   C       -9.63110         4.17077         3.58687
   C       -9.02364         5.31730         3.13980
   C       -7.72790         5.27059         2.59086
   C       -7.00838         4.08136         2.57834
   C       -7.60401         2.94129         3.07294
   C       -7.39713         6.58169         2.07929
   C       -8.48939         7.43676         2.31145
   C       -9.57078         6.72394         3.09355
   C      -10.94035         6.80155         2.40410
   C      -10.92546         6.19421         1.00610
   C       -9.60523         7.36823         4.50149
   C      -10.43855         6.63331         5.54293
   C       -8.47053         8.73621         1.87122
   C       -7.35186         9.21622         1.17277
   C       -6.26093         8.35809         0.97112
   C       -6.27222         7.05162         1.41527
   C       -7.29430        10.55124         0.62349
   C       -8.27955        11.46162         0.67985
   N       -8.20622        12.69146         0.07313
   C       -9.18063        13.62061         0.08674
   S      -10.59377        13.41037         1.06973
   C      -11.22104        14.91880         0.47127
   N      -12.46400        15.32752         0.95335
   O      -12.91862        16.37985         0.54061
   O      -13.00637        14.58721         1.76023
   C      -10.39602        15.53228        -0.42900
   C       -9.20991        14.80965        -0.67421
   C       -8.17919        15.18531        -1.58504
   C       -8.28821        16.17781        -2.51109
   C       -7.30578        16.56695        -3.44265
   C       -5.98895        16.19035        -3.55008
   C       -5.10768        16.64485        -4.56412
   C       -3.83019        16.18761        -4.45716
   C       -3.61490        15.34907        -3.34127
   S       -5.10373        15.13647        -2.45467
   C       -2.42371        14.77562        -2.93421
   C       -1.16833        14.86776        -3.57036
   C       -0.16352        14.23978        -2.89533
   C       -0.57074        13.62628        -1.68950
   S       -2.28941        13.83823        -1.45961
   C        0.25252        12.97119        -0.79480
   C       -0.17515        12.44056         0.41675
   C        0.59291        11.82050         1.37904
   C        1.94681        11.33828         1.35682
   C        2.64131        10.85662         0.27120
   C        3.96227        10.37327         0.33525
   N        5.04538         9.99047         0.32356
   C        2.08372        10.67963        -1.01020
   N        1.66640        10.47034        -2.05982
   C        2.39668        11.24442         2.74571
   C        1.28013        11.44189         3.59610
   C        0.09122        11.74135         2.76799
   O       -1.04604        11.92911         3.14610
   C        1.37799        11.38662         4.96427
   C        2.64003        11.14486         5.51999
   C        3.74975        10.96598         4.66222
   C        3.64844        11.00536         3.27589
   S        5.21565        10.70465         5.55802
   C        4.32871        10.83530         7.05357
   C        3.00375        11.06163         6.89252
  Br        5.23764        10.66450         8.68610
   H      -14.27107         1.99368         1.49348
   H      -13.52339        -1.89154         4.56671
   H      -16.72404         0.75244         0.93602
   H       -8.83738         1.01236         4.41266
   H      -10.62832         4.19296         3.99226
   H       -6.00380         4.04905         2.18453
   H       -7.06474         2.00509         3.06580
   H      -11.24344         7.84958         2.34892
   H      -11.67730         6.27009         3.00593
   H      -10.14111         6.63955         0.39690
   H      -11.88152         6.36594         0.51703
   H      -10.76090         5.12145         1.06194
   H       -9.98654         8.38564         4.39008
   H       -8.57656         7.43949         4.86493
   H      -11.46694         6.50999         5.21452
   H      -10.44729         7.20821         6.46643
   H      -10.01635         5.65546         5.75871
   H       -9.31731         9.37854         2.05353
   H       -5.39438         8.73237         0.44542
   H       -5.42403         6.40710         1.24044
   H       -6.38011        10.80747         0.10191
   H       -9.21223        11.27824         1.19029
   H       -7.36769        12.89586        -0.45819
   H      -10.64749        16.47557        -0.87688
   H       -7.26729        14.60802        -1.55186
   H       -9.22630        16.70890        -2.58596
   H       -7.62756        17.28279        -4.18917
   H       -5.45092        17.30279        -5.34292
   H       -3.03838        16.44261        -5.13749
   H       -1.03591        15.39201        -4.49951
   H        0.85950        14.19905        -3.22356
   H        1.29908        12.93022        -1.05854
   H       -1.20787        12.61780         0.70278
   H        0.51099        11.53135         5.58951
   H        4.52338        10.86796         2.66233
   H        2.31004        11.16831         7.70642
*
