# ORCA input file
# SCF done       -219.776877957678          0.000946921763
! CAM-B3LYP def2-SVP def2/J RIJCOSX Grid4 TightSCF
%maxcore 5000
%tddft
    Mode sTDDFT
    Ethresh 5.0
    maxcore 5000
end

%pal
  nprocs 6
  end
* xyz 0 1
   C        3.32352        -1.42929         4.83361
   S        2.75345        -2.80521         5.68364
   C        2.35244        -0.83022         4.08568
   C        2.53031         0.37604         3.25238
   O        3.59100         0.95668         3.12777
   C        1.28776         0.77389         2.59858
   C        1.05492         1.84377         1.76338
   N       -0.24300         1.82167         1.37593
   C       -0.88010         2.81817         0.55175
   C       -1.42449         3.96571         1.39970
   C       -0.86719         0.76640         1.94679
   C        0.04529         0.07755         2.71727
   C       -0.13451        -1.12282         3.51393
   O       -1.17071        -1.76134         3.61510
   C        1.10499        -1.51320         4.19417
   C        1.16681        -2.60944         5.02113
   C        0.03115        -3.43678         5.36083
   C       -0.73058        -3.29218         6.49317
   N       -0.54215        -2.32320         7.49590
   O       -1.34254        -2.29433         8.41057
   O        0.41103        -1.56794         7.38724
   C       -1.83218        -4.22888         6.46214
   C       -1.71603        -4.97543         5.34272
   C       -0.54548        -4.55547         4.60369
   C       -0.05504        -5.06998         3.42485
   C        0.87084        -4.43144         2.54180
   C        0.84927        -5.07862         1.34775
   C       -0.03624        -6.20390         1.42260
   N       -0.18382        -7.02613         0.29866
   O       -1.11377        -7.82584         0.23451
   O        0.62705        -6.88593        -0.60200
   C       -0.55031        -6.28507         2.72968
   C       -1.17850        -7.32250         3.43043
   C       -1.80909        -8.42070         2.89460
   C       -2.38899        -9.44704         3.63079
   S       -2.42053        -9.56199         5.38202
   C       -3.35407       -11.04543         5.39141
   C       -3.61555       -11.45375         4.06553
   C       -3.06866       -10.55680         3.11116
   N       -3.34261       -11.01568         1.87116
   C       -4.04599       -12.19267         1.99950
   C       -4.47875       -12.92121         0.88057
   N       -4.83841       -13.51804        -0.02988
   C       -4.23456       -12.49373         3.33665
   C       -3.71649       -11.61072         6.61431
   C       -4.49193       -12.74219         6.70863
   C       -4.82529       -13.43870         7.87824
   C       -5.00805       -14.83018         7.92151
   N       -5.11476       -15.73014         6.85048
   O       -5.17629       -16.91676         7.12299
   O       -5.15625       -15.29631         5.70537
   C       -4.93021       -15.27235         9.27959
   C       -4.79953       -14.18873        10.08690
   C       -4.88801       -12.99328         9.28778
   C       -5.23178       -11.73281         9.72401
   C       -5.32385       -10.53476         8.92904
   C       -5.29012        -9.45696         9.74897
   C       -5.26707        -9.91424        11.11352
   N       -5.29519        -9.02511        12.20241
   O       -5.31728        -9.48099        13.33478
   O       -5.28387        -7.83380        11.94590
   C       -5.36104       -11.29918        11.13584
   C       -5.69330       -12.08269        12.27027
   C       -6.49824       -13.17560        12.19596
   C       -6.91575       -13.95535        13.29909
   S       -6.50549       -13.55538        14.95146
   C       -7.67393       -15.12045        13.24031
   C       -8.15777       -15.75229        11.99657
   O       -7.93723       -15.31726        10.87686
   C       -8.92074       -16.96083        12.25421
   C       -9.52987       -17.80672        11.35084
   N      -10.13560       -18.80526        12.03240
   C      -10.82421       -19.92118        11.43302
   C       -9.86027       -21.07067        11.14708
   C       -9.92666       -18.63962        13.36004
   C       -9.17677       -17.49959        13.55070
   C       -8.69674       -16.89860        14.78430
   O       -8.89796       -17.33850        15.89993
   C       -7.91731       -15.66632        14.53076
   C       -7.34706       -14.91965        15.52860
   H        4.34657        -1.12207         4.92872
   H        1.73681         2.60008         1.42860
   H       -1.69418         2.34225        -0.00093
   H       -0.14589         3.19735        -0.16360
   H       -2.15816         3.59578         2.11178
   H       -1.89954         4.70526         0.76156
   H       -0.61886         4.44493         1.95076
   H       -1.90500         0.55682         1.77837
   H       -2.59744        -4.26536         7.21327
   H       -2.42613        -5.70193         5.00208
   H        1.42187        -3.54041         2.75854
   H        1.39057        -4.81954         0.45701
   H       -1.13966        -7.25514         4.50994
   H       -1.89376        -8.50230         1.81997
   H       -3.07041       -10.58903         0.99908
   H       -4.74056       -13.36510         3.70195
   H       -3.32258       -11.14013         7.50475
   H       -4.76012       -13.23878         5.78907
   H       -4.95666       -16.30505         9.56946
   H       -4.67397       -14.21256        11.14979
   H       -5.40240       -10.51044         7.86150
   H       -5.30769        -8.41895         9.47620
   H       -5.40278       -11.69454        13.23889
   H       -6.89642       -13.49948        11.24237
   H       -9.56402       -17.74130        10.28138
   H      -11.28895       -19.58315        10.50349
   H      -11.60962       -20.25203        12.11718
   H       -9.07915       -20.74920        10.46251
   H      -10.39746       -21.90102        10.69801
   H       -9.39443       -21.41326        12.06790
   H      -10.31863       -19.32111        14.08872
   H       -7.39407       -15.12864        16.57994
*
