# ORCA input file
# SCF done        -50.725876833344          0.000689955698
! B3LYP/G D3BJ Opt RIJCOSX def2-SVP def2/J
* xyz 0 1
   C       -1.75652         0.86730         0.06316
   S       -2.70837        -0.54833         0.09609
   C       -1.33381        -1.58630         0.01372
   C       -0.15908        -0.82923        -0.03653
   C       -0.41409         0.58936        -0.01028
   C        0.69044         1.50597        -0.06826
   C        0.42195         2.93090        -0.05760
   O       -0.66263         3.45840         0.04775
   C        1.65414         3.87558        -0.20797
   F        2.34485         3.64761        -1.34043
   F        1.27509         5.15024        -0.23775
   F        2.52835         3.75158         0.80761
   C        1.96937         0.98185        -0.13527
   C        2.19973        -0.39938        -0.14935
   C        1.16453        -1.29613        -0.10460
   C       -1.45402        -3.01388        -0.00014
   C       -2.60675        -3.68236         0.03012
   H       -2.23078         1.82607         0.09912
   H        2.83125         1.62726        -0.17403
   H        3.21767        -0.75365        -0.19875
   H        1.36163        -2.35709        -0.12026
   H       -0.51959        -3.55658        -0.04149
   H       -3.55410        -3.17090         0.06650
   H       -2.63405        -4.75694         0.01461
*
