# ORCA input file
# SCF done        -36.994804535216          0.000884595097
! B3LYP/G D3BJ Opt RIJCOSX def2-SVP def2/J
* xyz 0 1
   C        1.29850        -0.11059         0.03659
   C        0.62352         1.09504         0.07037
   C       -0.76402         1.13282         0.04968
   C       -1.47111         2.46035         0.07109
   C       -1.62090         3.02685        -1.34158
   C       -1.48061        -0.06345        -0.01509
   C       -0.80351        -1.28443        -0.02378
   C        0.58442        -1.29345        -0.00350
   C       -1.55401        -2.58701        -0.07872
   C       -1.71533        -3.06937        -1.52134
   C       -2.95986        -0.04085        -0.04518
   C       -3.67975         0.00667        -1.15436
   C       -5.17124         0.02629        -1.20136
   H        2.37868        -0.12866         0.05071
   H        1.17640         2.02284         0.11858
   H       -0.89775         3.16479         0.67830
   H       -2.46072         2.34822         0.51772
   H       -0.64682         3.12253        -1.81618
   H       -2.09093         4.00752        -1.31026
   H       -2.23545         2.36653        -1.94791
   H        1.10660        -2.23993        -0.01492
   H       -2.54201        -2.46678         0.37003
   H       -1.00723        -3.34244         0.49113
   H       -2.30463        -2.35621        -2.09269
   H       -2.21830        -4.03412        -1.54549
   H       -0.74240        -3.17119        -1.99768
   H       -3.45317        -0.07059         0.92141
   H       -3.18244         0.03410        -2.11666
   H       -5.59452        -0.03980        -0.20163
   H       -5.54083        -0.80840        -1.79696
   H       -5.52237         0.94565        -1.67127
*
