# ORCA input file
# SCF done        -37.217029584743          0.000670068664
! B3LYP/G D3BJ Opt RIJCOSX def2-SVP def2/J
* xyz 0 1
   C        1.59567         1.03148        -0.16881
   S        2.77503        -0.21737        -0.14964
   C        1.54771        -1.41156         0.01000
   C        0.29953        -0.87288         0.04512
   C        0.33068         0.54618        -0.06180
   C       -0.91267         1.38946         0.02802
   C       -0.93021         1.99142         1.34499
   N       -0.93373         2.44738         2.39335
   C       -2.17398         0.53813        -0.17651
   C       -2.09937        -0.73766         0.65731
   C       -0.99067        -1.64357         0.11697
   O       -1.41449        -2.08272        -1.16766
   C       -0.63834        -3.10464        -1.73156
   H        1.90835         2.05378        -0.25033
   H        1.82900        -2.44332         0.08612
   H       -0.87589         2.20298        -0.70677
   H       -2.25340         0.26018        -1.22845
   H       -3.05553         1.11962         0.10017
   H       -3.04592        -1.27449         0.59486
   H       -1.89641        -0.49800         1.70298
   H       -0.85863        -2.52306         0.77051
   H       -1.14684        -3.40095        -2.64732
   H       -0.56807        -3.96770        -1.05749
   H        0.37394        -2.76157        -1.97520
*
