# ORCA input file
# SCF done        -23.159391833640          0.000965583160
! B3LYP/G D3BJ Opt RIJCOSX def2-SVP def2/J
* xyz 0 1
   C       -0.57377         0.91964         0.05265
   O       -1.34172        -0.17629        -0.04358
   C       -0.52552        -1.23996         0.01299
   C        0.77131        -0.85311         0.13579
   C        0.74139         0.56845         0.16853
   S        2.09428         1.68605         0.26749
   C        3.13171         0.82837         1.40349
   C        4.36123         1.21734         1.69473
   H       -1.05073         1.87783         0.01720
   H       -0.97546        -2.21091        -0.04695
   H        1.63442        -1.48345         0.18559
   H        2.66302        -0.02935         1.85752
   H        4.80390         2.08286         1.23413
   H        4.95870         0.68306         2.41173
*
