# ORCA input file
# SCF done        -20.153328707409          0.000212868365
! B3LYP/G D3BJ Opt RIJCOSX def2-SVP def2/J
* xyz 0 1
   C        0.06700         1.19276        -0.06158
   C        1.33902         0.71562        -0.02521
   C        2.56848         1.56913        -0.01228
   C        3.05655         1.79983         1.41879
   C        1.36234        -0.70321         0.04379
   C        0.12443        -1.25319         0.05273
   S       -1.11164        -0.05958        -0.01867
   H       -0.25559         2.21374        -0.11557
   H        2.35136         2.53095        -0.48093
   H        3.35520         1.07687        -0.58824
   H        2.29194         2.31032         2.00017
   H        3.95750         2.40900         1.41862
   H        3.27848         0.85144         1.90292
   H        2.27073        -1.27825         0.07890
   H       -0.14767        -2.28903         0.09424
*
