# ORCA input file
# SCF done        -28.462193562662          0.000339469082
! B3LYP/G D3BJ Opt RIJCOSX def2-SVP def2/J
* xyz 0 1
   C       -0.68842        -1.07493        -0.67429
   S        0.67958        -0.04146        -0.58277
   C       -0.33678         1.38441         0.04387
   O        0.14841         2.44355         0.29640
   C       -1.69016         0.89351         0.12195
   C       -1.84581        -0.47797        -0.28512
   C       -3.19919        -0.96885        -0.20713
   O       -3.68420        -2.02835        -0.45842
   S       -4.21590         0.45771         0.41747
   C       -2.84774         1.49088         0.50982
   H       -0.56948        -2.08696        -1.01514
   H       -2.96679         2.50310         0.85010
*
