# ORCA input file
# SCF done        -49.205230632952          0.000503726787
! B3LYP/G D3BJ Opt RIJCOSX def2-SVP def2/J
* xyz 0 1
   C       -1.99416        -0.25457        -0.03565
   C       -0.92079        -1.08655        -0.06063
   C        0.39254        -0.54206        -0.03845
   C        1.64526        -1.12859        -0.05254
   C        2.04738        -2.57019        -0.05267
   C        2.05835        -3.12546         1.38755
   N        0.71239        -3.20808         1.92713
   C        1.20206        -3.45370        -0.98152
   N        2.01901        -4.55912        -1.46861
   C        2.60962        -0.05184        -0.01106
   C        3.95505        -0.06042        -0.01327
   C        4.73896         1.19754         0.02435
   C        3.93275         2.44926         0.08290
   C        2.58602         2.44365         0.08095
   C        1.87680         1.22169         0.02997
   C        0.53154         0.91120         0.00953
   C       -0.61789         1.73431         0.03193
   C       -1.84855         1.15925         0.00939
   H       -2.99447        -0.66400        -0.05014
   H       -1.05774        -2.15551        -0.08900
   H        3.07533        -2.63144        -0.42584
   H        2.73092        -2.49146         1.99241
   H        2.47384        -4.13819         1.38124
   H        0.29317        -2.28375         1.94197
   H        0.73633        -3.55372         2.88020
   H        0.89240        -2.86812        -1.85096
   H        0.30686        -3.79011        -0.44168
   H        2.27059        -5.16457        -0.69392
   H        1.48776        -5.11888        -2.12733
   H        4.52093        -0.98228        -0.04980
   H        5.42617         1.16174         0.88045
   H        5.39203         1.22531        -0.85876
   H        4.48855         3.37405         0.12416
   H        2.03136         3.37035         0.12008
   H       -0.50151         2.80801         0.06748
   H       -2.74028         1.76936         0.02654
*
