# ORCA input file
# SCF done        -34.989087204903          0.000452221337
! B3LYP/G D3BJ Opt RIJCOSX def2-SVP def2/J
* xyz 0 1
   C        3.07435        -0.32654         0.13523
   S        2.04115        -1.71577         0.24001
   C        0.65847        -0.70454         0.08323
   C        1.02442         0.64009        -0.04177
   C        2.41429         0.85440        -0.01160
   O       -0.05638         1.45086        -0.16762
   C       -1.12975         0.62051        -0.12426
   C       -0.74724        -0.71886         0.02949
   S       -2.11482        -1.75450         0.07825
   C       -3.19153        -0.37595        -0.10923
   C       -2.51326         0.81624        -0.20234
   C       -4.60597        -0.62902        -0.14704
   C       -5.55356         0.29647        -0.28151
   H        4.13360        -0.47798         0.19048
   H        2.89036         1.81298        -0.09302
   H       -2.98557         1.77227        -0.32069
   H       -4.88168        -1.67181        -0.05708
   H       -5.32474         1.34345        -0.37455
   H       -6.59478         0.02821        -0.30251
*
