# ORCA input file
# SCF done        -20.836877070884          0.000349059007
! B3LYP/G D3BJ Opt RIJCOSX def2-SVP def2/J
* xyz 0 1
   C       -0.22188         1.10003         0.05829
   O       -1.04707         0.05864         0.04153
   C       -0.29222        -1.05634        -0.02218
   C        1.02689        -0.74168        -0.04704
   C        1.08865         0.68362         0.00599
   C        2.27802         1.51861         0.00513
   O        2.28486         2.72261         0.05096
   H       -0.64155         2.08535         0.10767
   H       -0.80748        -1.99591        -0.04367
   H        1.85576        -1.41688        -0.09599
   H        3.22151         0.94001        -0.04583
*
