# ORCA input file
# SCF done        -32.772616653612          0.000827927385
! B3LYP/G D3BJ Opt RIJCOSX def2-SVP def2/J
* xyz 0 1
   C       -1.52330        -1.24484         0.15390
   S       -2.69451        -0.03231         0.40577
   C       -1.52572         1.21341         0.34402
   C       -0.26071         0.71982         0.13539
   C       -0.25666        -0.71672         0.02290
   C        0.95861        -1.40366        -0.19356
   C        2.12780        -0.69439        -0.28754
   C        3.45061        -1.33357        -0.49635
   O        4.47661        -0.68945        -0.45877
   C        3.46562        -2.82160        -0.75924
   C        2.11300         0.72926        -0.17101
   C        0.96613         1.42396         0.02943
   H       -1.81809        -2.27435         0.11435
   H       -1.82791         2.23418         0.46485
   H        0.93112        -2.47920        -0.27145
   H        2.86836        -3.05442        -1.63848
   H        3.05725        -3.35692         0.09524
   H        4.49073        -3.14333        -0.92388
   H        3.06416         1.23337        -0.25163
   H        0.96516         2.50021         0.11260
*
