# ORCA input file
# SCF done        -36.237303990017          0.000568917749
! B3LYP/G D3BJ Opt RIJCOSX def2-SVP def2/J
* xyz 0 1
   C       -2.79905         0.45261         0.02911
   C       -3.15345        -0.84645        -0.05311
   S       -1.80297        -1.92935        -0.12222
   C       -0.70461        -0.58748        -0.03889
   C       -1.38551         0.64005         0.03797
   C       -0.65903         1.83567         0.10287
   C        0.72036         1.84076         0.07117
   C        1.40878         0.60270         0.03598
   C        0.68342        -0.60174        -0.02397
   S        1.72631        -1.99029        -0.04418
   C        3.11425        -0.96385         0.06874
   C        2.81079         0.35062         0.10347
   C        1.42217         3.12435         0.06005
   C        2.47900         3.41267        -0.68638
   H       -3.50144         1.26517         0.08063
   H       -4.14147        -1.26297        -0.07928
   H       -1.19813         2.77067         0.14946
   H        4.08484        -1.41861         0.10698
   H        3.54880         1.12512         0.20185
   H        0.97697         3.89410         0.67894
   H        2.91654         2.69550        -1.36069
   H        2.92830         4.39130        -0.67144
*
