# ORCA input file
# SCF done        -40.121828559720          0.000479803705
! B3LYP/G D3BJ Opt RIJCOSX def2-SVP def2/J
* xyz 0 1
   C        1.48560        -1.32573         0.13918
   S        2.71951        -0.13912         0.19828
   C        1.53997         1.14732         0.19128
   C        0.26263         0.64152         0.12424
   C        0.23841        -0.77909         0.08371
   C       -1.03722        -1.56523         0.00402
   C       -1.32362        -2.09367        -1.40771
   O       -2.41025        -1.99537        -1.91560
   C       -0.17578        -2.77985        -2.09907
   C       -2.20680        -0.71270         0.50169
   C       -2.21719         0.62348        -0.23294
   C       -0.99204         1.45616         0.13706
   C        2.05427         2.49212         0.24996
   C        1.38916         3.61283         0.51779
   H        1.75773        -2.36240         0.15743
   H       -0.93727        -2.46411         0.62698
   H        0.61251        -2.05857        -2.30280
   H       -0.52102        -3.20880        -3.03622
   H        0.23542        -3.56282        -1.46737
   H       -2.10821        -0.54624         1.57649
   H       -3.14002        -1.24516         0.31497
   H       -3.12084         1.18062         0.01949
   H       -2.23227         0.43704        -1.30746
   H       -1.12676         1.86308         1.14535
   H       -0.89226         2.29946        -0.55057
   H        3.12102         2.55336         0.06967
   H        0.34017         3.63941         0.74383
   H        1.90169         4.55936         0.53178
*
