# ORCA input file
# SCF done        -50.878685600630          0.000437262849
! B3LYP/G D3BJ Opt RIJCOSX def2-SVP def2/J
* xyz 0 1
   C        3.50184         0.10583         0.02867
   C        2.58955         1.15304         0.04661
   C        1.24279         0.86185         0.02230
   C        0.80568        -0.47084        -0.02010
   C        1.71810        -1.51266        -0.03739
   C        3.07023        -1.21082        -0.01258
   C       -0.64637        -0.47744        -0.03810
   C       -1.09956         0.85082        -0.00672
   C        0.06715         1.81075         0.03395
   C        0.07942         2.73464        -1.19785
   C        0.09671         1.96487        -2.51293
   C        0.04761         2.66309         1.31641
   C        0.01612         1.81954         2.58517
   C       -2.44368         1.13622        -0.01352
   C       -3.37283         0.08954        -0.05227
   C       -2.90512        -1.22754        -0.09142
   C       -1.55469        -1.52223        -0.08187
   C       -4.81132         0.31920        -0.05549
   C       -5.43257         1.47785         0.13165
   H        4.56065         0.32004         0.04698
   H        2.93774         2.17553         0.07854
   H        1.38443        -2.53934        -0.06929
   H        3.79763        -2.00969        -0.02547
   H        0.95977         3.37893        -1.14307
   H       -0.80511         3.37469        -1.16476
   H        0.97570         1.32669        -2.57193
   H        0.11554         2.65659        -3.35230
   H       -0.78801         1.33820        -2.60184
   H       -0.82985         3.31316         1.29189
   H        0.93474         3.30026         1.32640
   H       -0.87623         1.19806         2.61036
   H        0.01403         2.46201         3.46295
   H        0.88719         1.16994         2.63506
   H       -2.78325         2.16049         0.00347
   H       -3.62374        -2.03484        -0.12494
   H       -1.21776        -2.54805        -0.10949
   H       -5.40771        -0.57111        -0.21622
   H       -4.90741         2.39954         0.31368
   H       -6.50689         1.54554         0.11721
*
