# ORCA input file
# SCF done        -34.716398611836          0.000745235778
! B3LYP/G D3BJ Opt RIJCOSX def2-SVP def2/J
* xyz 0 1
   C        0.21218         1.21557        -0.15446
   S       -0.99782         0.02058         0.00736
   C        0.17404        -1.21493         0.16535
   C        1.44629        -0.72705         0.09373
   C        1.46893         0.68556        -0.09003
   N        2.65084         1.51116        -0.07148
   O        2.59207         2.55254        -0.68004
   O        3.57604         1.11859         0.59461
   N        2.60056        -1.59459         0.06969
   O        2.54562        -2.58522         0.75716
   O        3.49251        -1.28448        -0.67950
   H       -0.03598         2.25289        -0.26821
   H       -0.11021        -2.24254         0.28205
*
