# ORCA input file
# SCF done        -44.208988010494          0.000520568939
! B3LYP/G D3BJ Opt RIJCOSX def2-SVP def2/J
* xyz 0 1
   C        1.39133        -1.31897        -0.07054
   S        2.66627        -0.18488         0.06930
   C        1.53548         1.12415         0.30284
   C        0.24009         0.66783         0.24858
   C        0.16636        -0.73482         0.04231
   C       -1.12630        -1.48992        -0.07702
   C       -1.31073        -1.90799        -1.52776
   O       -1.33251        -1.17294        -2.47875
   O       -1.45892        -3.23548        -1.61959
   C       -1.65615        -3.75704        -2.92764
   C       -2.31027        -0.62151         0.37188
   C       -2.19935         0.77749        -0.22246
   C       -0.99322         1.50560         0.36577
   C        2.08559         2.44148         0.50088
   C        1.47384         3.49855         1.02812
   H        1.61599        -2.35615        -0.22435
   H       -1.08384        -2.40851         0.51645
   H       -1.83096        -4.82316        -2.80772
   H       -0.77174        -3.57917        -3.54269
   H       -2.51481        -3.27582        -3.40033
   H       -2.30541        -0.55973         1.46281
   H       -3.24459        -1.09554         0.06409
   H       -3.10756         1.34546        -0.01318
   H       -2.08623         0.69721        -1.30415
   H       -1.18138         1.72194         1.42338
   H       -0.84097         2.45655        -0.14899
   H        3.12173         2.53302         0.19788
   H        0.46445         3.47046         1.39450
   H        1.99012         4.43795         1.12597
*
