# ORCA input file
# SCF done        -29.767583974718          0.000890151644
! B3LYP/G D3BJ Opt RIJCOSX def2-SVP def2/J
* xyz 0 1
   C        1.61321         0.76634        -0.00706
   C        0.37025         1.30659         0.10838
   S       -0.86330         0.05988         0.16393
   C        0.35673        -1.17800         0.02896
   O       -0.09046        -2.45940         0.02187
   C        0.89649        -3.45191        -0.12875
   C        1.60334        -0.65425        -0.05276
   N       -0.03112         2.61638         0.18201
   C        0.78729         3.71761         0.13245
   C        0.34716         4.96933         0.21145
   H        2.52209         1.33597        -0.05782
   H        0.36625        -4.40234        -0.12898
   H        1.61049        -3.42952         0.70104
   H        1.43727        -3.33155        -1.07319
   H        2.50235        -1.23608        -0.14120
   H       -1.02131         2.78402         0.28008
   H        1.83635         3.49350         0.01893
   H       -0.69949         5.19649         0.31982
   H        1.02512         5.79936         0.16351
*
