# ORCA input file
# SCF done        -27.242839109849          0.000877772770
! B3LYP/G D3BJ Opt RIJCOSX def2-SVP def2/J
* xyz 0 1
   C       -1.02024         0.04256         0.14906
   O       -0.07039         0.99742         0.12851
   C        1.12976         0.40391        -0.06753
   C        0.94172        -0.96234        -0.14548
   C       -0.45694        -1.19086        -0.01299
   O       -1.09518        -2.37948        -0.03435
   S        2.11118        -2.26859        -0.33210
   C        2.28453         1.26124        -0.12574
   C        3.50515         0.92891        -0.53895
   H       -2.03714         0.34545         0.28431
   H       -0.43846        -3.08267        -0.12748
   H        3.06440        -1.70566         0.40735
   H        2.07340         2.27595         0.18594
   H        3.75096        -0.04951        -0.91047
   H        4.29984         1.65371        -0.54609
*
