# ORCA input file
# SCF done        -34.364147611786          0.000561621032
! B3LYP/G D3BJ Opt RIJCOSX def2-SVP def2/J
* xyz 0 1
   C       -3.17349        -0.09594         0.03926
   C       -2.55603        -1.30295        -0.06399
   C       -1.15566        -1.15359        -0.04304
   C       -0.73962         0.18212         0.07743
   S       -2.08977         1.25315         0.16465
   C        0.66121         0.17151         0.08458
   C        1.05689        -1.17206        -0.03213
   N       -0.05629        -1.96832        -0.10917
   C        2.44762        -1.34686        -0.03974
   C        3.11327        -0.15014         0.06983
   S        2.02144         1.22449         0.18529
   C        4.53690         0.03150         0.09523
   C        5.15792         1.20279         0.20599
   H       -4.22738         0.09850         0.05061
   H       -3.07702        -2.23912        -0.14951
   H       -0.06421        -2.96932        -0.19633
   H        2.94947        -2.29440        -0.12050
   H        5.10885        -0.88524         0.01728
   H        4.60562         2.12452         0.28502
   H        6.23070         1.27538         0.21967
*
