# ORCA input file
# SCF done        -33.866642265013          0.000736230862
! B3LYP/G D3BJ Opt RIJCOSX def2-SVP def2/J
* xyz 0 1
   C       -1.50928        -1.22877         0.28333
   S       -2.67790         0.00582         0.33748
   C       -1.50489         1.23352         0.15030
   C       -0.23435         0.71948         0.05057
   C       -0.23513        -0.72211         0.12803
   C        0.98306        -1.42475         0.04305
   C        2.13932        -0.70907        -0.11309
   N        3.39045        -1.41095        -0.20359
   O        3.36613        -2.62255        -0.12263
   O        4.39945        -0.75373        -0.35594
   C        2.15187         0.70959        -0.19056
   C        0.99364         1.41243        -0.11039
   H       -1.80227        -2.25581         0.36766
   H       -1.80533         2.26160         0.12488
   H        1.00800        -2.50226         0.09789
   H        3.10520         1.19866        -0.31508
   H        0.98670         2.48952        -0.16844
*
