# ORCA input file
# SCF done        -37.021146248028          0.000657998824
! B3LYP/G D3BJ Opt RIJCOSX def2-SVP def2/J
* xyz 0 1
   C       -1.68322        -0.82361        -0.68088
   S       -2.66425         0.57376        -0.95399
   C       -0.39270        -0.46513        -0.49727
   C        0.91984        -1.11704        -0.19293
   N        0.94715        -1.55913         1.18400
   C        2.17069        -2.25670         1.54261
   C        2.12531        -2.68082         3.00178
   O        1.87770        -0.08819        -0.39289
   C        1.28469         1.20597        -0.36056
   O        1.88025         2.01857        -1.31177
   C       -0.18231         0.93503        -0.56514
   C       -1.30977         1.63814        -0.81065
   H       -2.13508        -1.79473        -0.68354
   H        1.18654        -1.92897        -0.90192
   H        0.13749        -2.14317         1.37017
   H        2.99160        -1.55570         1.37545
   H        2.34023        -3.13801         0.89765
   H        1.95172        -1.81465         3.63398
   H        3.06649        -3.14383         3.28568
   H        1.32192        -3.39635         3.16707
   H        1.47218         1.69429         0.60826
   H        1.94681         1.52413        -2.13839
   H       -1.44682         2.69423        -0.91980
*
