# ORCA input file
# SCF done        -26.831850794897          0.000398002701
! B3LYP/G D3BJ Opt RIJCOSX def2-SVP def2/J
* xyz 0 1
   C       -1.78543        -0.95558        -0.05854
   S       -1.58003         0.75989         0.12606
   C        0.13773         0.56017         0.12960
   C        0.48485        -0.78944        -0.00858
   C       -0.62278        -1.65573        -0.11646
   N        1.84037        -0.86391         0.00113
   C        2.36139         0.40325         0.14257
   C        1.31495         1.31003         0.22482
   C        3.78358         0.60822         0.18133
   C        4.39144         1.78439         0.31763
   H       -2.78382        -1.34192        -0.11374
   H       -0.56837        -2.72341        -0.22897
   H        2.39036        -1.70251        -0.07888
   H        1.39860         2.37105         0.33798
   H        4.37859        -0.29279         0.08750
   H        3.83734         2.70107         0.41341
   H        5.46388         1.86354         0.33788
*
