# ORCA input file
# SCF done        -44.046757212444          0.000964940526
! B3LYP/G D3BJ Opt RIJCOSX def2-SVP def2/J
* xyz 0 1
   C        2.89772         0.73928        -0.85626
   N        2.13978        -0.18166        -1.33429
   C        0.92161        -0.14206        -0.75821
   C        0.75327         0.83687         0.19196
   S        2.17936         1.76984         0.36111
   C       -0.65408         0.85634         0.63379
   C       -1.04704        -0.60139         0.34669
   C       -0.32425        -0.97601        -0.97161
   C       -1.10056        -0.47159        -2.19925
   C       -0.38119        -0.73107        -3.51768
   C        0.04464        -2.46321        -1.04771
   C       -1.14689        -3.40869        -1.13237
   N       -2.48171        -0.57595         0.50168
   C       -2.74134        -0.02062         1.82260
   S       -1.32804         1.07620         2.30664
   H        3.91362         0.89146        -1.15968
   H       -1.23072         1.54795         0.00767
   H       -0.57122        -1.21626         1.13815
   H       -1.25202         0.60351        -2.08505
   H       -2.08757        -0.93515        -2.20576
   H        0.65092        -0.39433        -3.45658
   H       -0.87574        -0.19056        -4.32141
   H       -0.38581        -1.78797        -3.76927
   H        0.63399        -2.71181        -0.16086
   H        0.69341        -2.60581        -1.91157
   H       -1.77454        -3.32581        -0.24767
   H       -0.79537        -4.43595        -1.19768
   H       -1.75462        -3.20156        -2.00867
   H       -2.90764        -1.49255         0.41690
   H       -2.81692        -0.77434         2.61628
   H       -3.65271         0.58001         1.80237
*
