# ORCA input file
# SCF done        -51.511593781465          0.000339191638
! B3LYP/G D3BJ Opt RIJCOSX def2-SVP def2/J
* xyz 0 1
   C       -0.12276         1.52409        -0.00646
   C        1.09650         0.86802        -0.00174
   C        2.47443         1.42825         0.00186
   O        2.82111         2.57747         0.00117
   N        3.33325         0.32480         0.00623
   C        2.64758        -0.88895         0.00577
   O        3.13000        -1.98827         0.00881
   C        1.20016        -0.52704         0.00060
   C        0.09059        -1.35496        -0.00168
   C       -1.13173        -0.69804        -0.00639
   C       -1.23493         0.69427        -0.00868
   C       -2.68314         1.02875        -0.01349
   O       -3.22098         2.08856        -0.01655
   O       -3.37003        -0.16395        -0.01389
   C       -2.51490        -1.24231        -0.00980
   O       -2.89056        -2.36985        -0.00936
   C        4.72457         0.51047         0.01050
   C        5.63186        -0.44999         0.01565
   H       -0.20213         2.59930        -0.00826
   H        0.17099        -2.43010         0.00010
   H        4.97766         1.56243         0.00942
   H        5.37395        -1.49309         0.01737
   H        6.67655        -0.19750         0.01929
*
