# ORCA input file
# SCF done       -181.867799767386          0.000467320112
! CAM-B3LYP def2-SVP def2/J RIJCOSX Grid4 TightSCF
%maxcore 5000
%tddft
    Mode sTDDFT
    Ethresh 5.0
    maxcore 5000
end

%pal
  nprocs 6
  end
* xyz 0 1
   C        0.81808        11.97113        -3.81265
   S        0.99888        10.72661        -2.64656
   C        2.39924        10.06715        -3.47509
   C        2.69218        10.81034        -4.61446
   C        1.77515        11.91324        -4.80899
   C        1.87428        12.79360        -5.88411
   S        3.07008        12.68959        -7.09169
   C        3.99490        11.31940        -6.61163
   C        3.75466        10.56262        -5.51710
   C        3.08006         8.93514        -2.98802
   C        2.75094         8.24841        -1.85904
   C        3.49338         7.12014        -1.44422
   N        4.54026         6.68240        -2.15141
   C        5.00621         5.61468        -1.49054
   C        4.22019         5.33659        -0.28306
   C        4.76285         4.16467         0.41748
   O        4.37358         3.64406         1.44720
   C        5.89827         3.77081        -0.43129
   C        6.01687         4.67454        -1.58230
   N        7.06058         4.32374        -2.36660
   C        7.58953         3.26986        -1.77750
   C        6.91523         2.87292        -0.56936
   C        3.23953         6.30300        -0.23877
   C        2.20350         6.53496         0.70898
   C        2.02453         5.74439         1.79253
   C        1.03503         5.88298         2.82337
   C        1.04199         4.95771         3.85018
   C        0.11467         5.04047         4.90260
   C       -0.08056         4.25705         6.03549
   C        0.65406         3.03075         6.46097
   C        0.47556         1.90481         5.42718
   N       -0.94062         1.67171         5.20989
   C        2.14050         3.32170         6.72609
   N        2.26209         4.28763         7.80535
   C       -1.18746         4.83183         6.75336
   C       -1.76487         4.49003         7.92010
   C       -2.94939         5.22223         8.45044
   C       -3.34669         6.42544         7.65746
   C       -2.74381         6.76838         6.50195
   C       -1.66401         6.00478         6.00402
   C       -0.86313         6.12161         4.88523
   C       -0.85629         7.05313         3.82141
   C        0.06162         6.93569         2.82909
   C       -4.09269         4.24141         8.42140
   C       -4.68291         3.73491         9.51178
   C       -5.75490         2.78924         9.42858
   N       -6.25113         2.40571         8.26219
   C       -7.22239         1.51200         8.54695
   C       -7.35715         1.30265         9.97775
   C       -8.40958         0.31974        10.25818
   O       -8.77844        -0.11121        11.33606
   C       -8.89886        -0.02699         8.91299
   C       -8.15092         0.71617         7.89252
   N       -8.58713         0.40667         6.65280
   C       -9.55200        -0.47316         6.83983
   C       -9.79624        -0.78783         8.22328
   C       -6.41140         2.12866        10.57487
   C       -6.10637         2.33824        11.93136
   C       -6.71684         1.63790        12.94272
   C       -6.51092         1.76615        14.31685
   S       -7.04528         0.46322        15.34020
   C       -6.36103         1.19071        16.77701
   C       -5.78605         2.40835        16.49640
   C       -5.89712         2.79066        15.10018
   C       -5.54179         4.02912        14.64460
   S       -4.80436         5.25695        15.59931
   C       -4.67996         4.49102        17.15283
   C       -5.14912         3.26840        17.44304
   C       -6.44879         0.52118        18.04331
   C       -7.04985        -0.65178        18.23424
   H        0.02448        12.68302        -3.71558
   H        1.18061        13.60668        -6.00899
   H        4.81032        11.11063        -7.28346
   H        4.40820         9.72563        -5.32183
   H        3.93320         8.57469        -3.54496
   H        1.90739         8.56514        -1.26155
   H        8.45017         2.78600        -2.20641
   H        7.18621         2.04541         0.05678
   H        1.55874         7.38333         0.52673
   H        2.69970         4.90752         1.91748
   H        1.77824         4.16877         3.82914
   H        0.21592         2.68174         7.40344
   H        1.02109         1.01153         5.78201
   H        0.90894         2.20452         4.47189
   H       -1.38492         1.33390         6.05721
   H       -1.08237         0.97802         4.48519
   H        2.59875         3.76132         5.83963
   H        2.65329         2.36583         6.93559
   H        1.93926         3.88547         8.67953
   H        3.23007         4.56217         7.92680
   H       -1.43181         3.64369         8.50472
   H       -2.76217         5.50740         9.49462
   H       -4.17998         6.99053         8.04623
   H       -3.07014         7.63878         5.95092
   H       -1.58411         7.85182         3.81075
   H        0.06602         7.64911         2.01947
   H       -4.43525         3.93423         7.44475
   H       -4.34962         4.02510        10.49987
   H      -10.07645        -0.88829         5.99668
   H      -10.53309        -1.47574         8.58945
   H       -5.31984         3.04296        12.15920
   H       -7.40210         0.84986        12.65091
   H       -5.73939         4.35256        13.63852
   H       -4.19882         5.11667        17.88558
   H       -5.03777         2.90972        18.45570
   H       -5.98636         1.02927        18.87889
   H       -7.52116        -1.18209        17.42374
   H       -7.08931        -1.11284        19.20478
*
