# ORCA input file
# SCF done       -198.314070477489          0.000826996631
! CAM-B3LYP def2-SVP def2/J RIJCOSX Grid4 TightSCF
%maxcore 5000
%tddft
    Mode sTDDFT
    Ethresh 5.0
    maxcore 5000
end

%pal
  nprocs 6
  end
* xyz 0 1
   C       -7.46538        -3.97224         8.53347
   C       -6.65106        -4.63359         9.42046
   C       -5.24712        -4.52524         9.42630
   N       -4.09841        -4.52557         9.45682
   C       -7.06404        -5.54830        10.41075
   N       -7.28404        -6.30251        11.24901
   C       -7.00033        -3.00660         7.53795
   C       -8.11966        -2.54007         6.80841
   C       -8.01545        -1.66443         5.75802
   C       -6.73375        -1.23449         5.39754
   C       -5.62339        -1.68044         6.14880
   C       -5.73348        -2.55427         7.22478
   S       -4.13193        -1.04344         5.52131
   C       -5.01072        -0.20717         4.26811
   C       -6.35165        -0.38754         4.32185
  Br       -4.07359         0.80600         2.99562
   C       -9.33589        -3.17244         7.34877
   O      -10.48702        -2.89359         7.04671
   C       -8.88887        -4.14033         8.34902
   C       -9.70029        -5.02863         9.03481
   C      -10.98469        -5.48822         8.74150
   C      -11.69535        -5.53056         7.55402
   C      -12.94382        -6.20220         7.41531
   C      -13.41756        -6.26653         6.14184
   C      -12.55332        -5.65581         5.20295
   S      -11.16465        -4.96826         6.00294
   C      -12.72460        -5.48114         3.84200
   C      -13.83014        -5.85381         3.04274
   C      -13.73580        -5.43421         1.75103
   C      -12.54209        -4.72537         1.45915
   S      -11.52847        -4.64180         2.88265
   C      -12.21393        -4.13204         0.26222
   C      -11.00843        -3.46456         0.01805
   O      -10.00823        -3.46255         0.94407
   C      -10.57012        -2.74043        -1.08855
   C      -10.94942        -2.27794        -2.42676
   O      -11.95934        -2.43252        -3.06197
   N       -9.82593        -1.57261        -2.85667
   C       -8.76629        -1.53039        -1.95253
   O       -7.71465        -0.97753        -2.13749
   C       -9.26692        -2.29500        -0.80335
   C       -8.93193        -2.77141         0.46055
   C       -7.72910        -2.71889         1.18381
   C       -7.56735        -3.41444         2.35447
   C       -6.37896        -3.54604         3.07306
   C       -6.28482        -4.37330         4.17470
   C       -5.16263        -4.65415         4.98386
   C       -5.40703        -5.54411         5.99326
   C       -6.73448        -6.01604         6.01732
   S       -7.66890        -5.28879         4.73954
   C       -7.34245        -6.92349         6.87421
   C       -6.84043        -7.56120         8.02454
   C       -7.76436        -8.33910         8.66612
   C       -9.02796        -8.37179         8.03696
   S       -9.00293        -7.38467         6.59902
   C      -10.16737        -9.04261         8.44505
   C      -11.34154        -9.04171         7.69921
   C      -12.54964        -9.63695         7.99346
   C      -13.06039       -10.21354         9.20550
   C      -12.73607        -9.83567        10.48897
   C      -13.29093       -10.41663        11.64426
   N      -13.70303       -10.87708        12.61232
   C      -11.93159        -8.71461        10.76193
   N      -11.34872        -7.75332        10.99948
   C      -14.16937       -11.09168         8.83789
   C      -14.47719       -10.87553         7.47038
   C      -13.52272        -9.89413         6.91177
   O      -13.52553        -9.40742         5.79893
   C      -15.50732       -11.52620         6.83799
   C      -16.25866       -12.44181         7.58445
   C      -15.93461       -12.65725         8.94429
   C      -14.89868       -11.99005         9.58941
   S      -16.98329       -13.83434         9.67319
   C      -17.83487       -14.01662         8.16281
   C      -17.35851       -13.23804         7.16248
  Br      -19.27087       -15.21810         8.04847
   H       -8.89009        -1.33806         5.21838
   H       -4.85272        -2.86000         7.76349
   H       -7.04436         0.05275         3.62833
   H       -9.28762        -5.45611         9.94089
   H      -11.46207        -6.01808         9.55916
   H      -13.44588        -6.61406         8.27342
   H      -14.33943        -6.73828         5.85606
   H      -14.66012        -6.40403         3.44693
   H      -14.48261        -5.60201         0.99566
   H      -12.92033        -4.15745        -0.55356
   H       -9.78192        -1.12586        -3.76148
   H       -6.92175        -2.15762         0.73779
   H       -8.42972        -3.95106         2.73249
   H       -5.49202        -3.02304         2.74293
   H       -4.20558        -4.19865         4.80026
   H       -4.66980        -5.86942         6.70538
   H       -5.82710        -7.42576         8.35937
   H       -7.57422        -8.87483         9.57852
   H      -10.10262        -9.60367         9.36559
   H      -11.29076        -8.60170         6.70700
   H      -15.72841       -11.33994         5.79868
   H      -14.68507       -12.18734        10.62700
   H      -17.76421       -13.22549         6.16740
*
