# ORCA input file
# SCF done       -129.707906716466          0.000601766213
! CAM-B3LYP def2-SVP def2/J RIJCOSX Grid4 TightSCF
%maxcore 5000
%tddft
    Mode sTDDFT
    Ethresh 5.0
    maxcore 5000
end

%pal
  nprocs 6
  end
* xyz 0 1
   C        2.40956         0.00160        -3.59125
   N        2.40503        -1.04923        -4.41169
   C        1.73352        -2.09444        -3.99128
   C        1.06679        -2.06885        -2.74836
   N        1.14327        -0.96650        -1.99190
   N        1.81417         0.05663        -2.41803
   C        0.30432        -3.17310        -2.24219
   C       -0.36156        -3.21963        -1.03904
   C       -1.00905        -4.44156        -0.85410
   C       -0.83801        -5.33487        -1.92173
   S        0.13624        -4.65425        -3.16700
   C       -1.49618        -6.54947        -1.71543
   C       -2.16982        -6.57788        -0.48547
   S       -1.99131        -5.10129         0.42263
   C       -2.83847        -7.77276        -0.24180
   C       -2.68528        -8.67488        -1.28018
   S       -1.69532        -8.02680        -2.58089
   C       -3.20410        -9.99741        -1.40266
   C       -4.01250       -10.64458        -0.43785
   C       -4.49119       -11.99457        -0.60950
   N       -5.25606       -12.54353         0.35891
   C       -5.54850       -11.86320         1.41673
   C       -5.07867       -10.53740         1.58528
   N       -4.34466        -9.97217         0.68583
   F       -5.37627        -9.82917         2.67348
   F       -6.30649       -12.45288         2.34001
   C       -4.18368       -12.76966        -1.75391
   C       -3.38935       -12.11429        -2.71891
   C       -2.91496       -10.76755        -2.54897
   N       -2.18402       -10.36928        -3.59126
   S       -2.10110       -11.55492        -4.66875
   N       -2.98200       -12.63520        -3.87717
   C       -4.59955       -14.11658        -1.96487
   C       -5.38120       -14.92237        -1.15401
   C       -5.54663       -16.19484        -1.68875
   C       -4.89446       -16.38193        -2.91681
   S       -4.07240       -14.95368        -3.41910
   C       -5.06717       -17.67689        -3.41429
   C       -5.85178       -18.47243        -2.56327
   S       -6.38618       -17.62039        -1.14135
   C       -6.02920       -19.77459        -3.02822
   C       -5.38118       -19.96778        -4.22755
   S       -4.54636       -18.55060        -4.80573
   C       -5.32140       -21.17023        -5.00489
   N       -5.96103       -22.26206        -4.54991
   C       -5.85816       -23.33317        -5.30420
   C       -5.12257       -23.29812        -6.49245
   N       -4.52738       -22.18115        -6.87662
   N       -4.62390       -21.12211        -6.14164
   H        2.94986         0.88021        -3.91239
   H        1.71512        -2.96825        -4.63077
   H       -0.36226        -2.39715        -0.34891
   H       -3.40916        -7.98930         0.63965
   H       -5.79720       -14.58673        -0.22453
   H       -6.58932       -20.54653        -2.53506
   H       -6.36610       -24.22382        -4.95821
   H       -5.00668       -24.15300        -7.14010
*
