# ORCA input file
# SCF done       -166.357480982828          0.000411701241
! CAM-B3LYP def2-SVP def2/J RIJCOSX Grid4 TightSCF
%maxcore 5000
%tddft
    Mode sTDDFT
    Ethresh 5.0
    maxcore 5000
end

%pal
  nprocs 6
  end
* xyz 0 1
   C        2.37632        -4.48741        -8.18211
   O        2.90301        -5.27167        -9.12555
   C        4.24103        -5.15490        -9.03683
   C        4.58774        -4.30083        -8.04264
   C        3.36105        -3.84679        -7.46348
   C        3.15099        -2.93698        -6.37650
   C        4.13898        -2.33060        -5.68449
   C        3.97157        -1.41900        -4.59748
   C        2.79957        -1.11717        -3.98530
   C        2.63128        -0.20946        -2.90480
   S        1.28041        -0.45663        -1.84135
   C        1.81675         0.84809        -0.83931
   N        1.07351         1.16735         0.30487
   O        1.48039         2.07539         1.00684
   O        0.07099         0.50691         0.51555
   C        2.95215         1.45541        -1.30576
   C        3.42635         0.87787        -2.50004
   C        4.52375         1.39721        -3.26367
   C        5.47822         2.21972        -2.77586
   C        6.54073         2.75195        -3.55479
   S        6.50727         2.62166        -5.29062
   C        7.94655         3.57280        -5.39907
   N        8.48229         3.83424        -6.66589
   O        9.49500         4.50858        -6.72352
   O        7.89381         3.36268        -7.62446
   C        8.42429         3.96861        -4.17713
   C        7.64999         3.48390        -3.10608
   C        8.04395         3.73901        -1.74036
   C        7.81036         2.93572        -0.68634
   C        8.20489         3.16751         0.67798
   C        9.32703         3.81699         1.11081
   O        9.57448         4.06048         2.44927
   C        8.65523         3.55145         3.31732
   C        7.52291         2.81029         2.87078
   C        6.73991         2.37848         3.88928
   S        7.37413         2.87028         5.41584
   C        8.70887         3.66569         4.66679
   O        7.28241         2.59558         1.54759
   C       10.39512         4.21750         0.24441
   C       11.43060         4.98610         0.64491
   C       12.56474         5.37234        -0.15097
   C       13.58074         6.08603         0.44809
   C       14.72244         6.47167        -0.28177
   C       15.87187         7.15938         0.08125
   C       16.24529         7.72152         1.41088
   C       15.31340         8.88434         1.79225
   N       15.46816         9.96814         0.83836
   C       16.27033         6.62814         2.51082
   N       17.02434         6.96604         3.69828
   C       16.68798         7.26302        -1.10438
   C       17.88970         7.83173        -1.31352
   C       18.52079         7.85827        -2.66091
   C       17.77197         7.10569        -3.71440
   C       16.57545         6.53273        -3.49029
   C       15.98274         6.59429        -2.20624
   C       14.79447         6.11789        -1.69578
   C       13.73248         5.39796        -2.29177
   C       12.66296         5.03522        -1.54330
   C       18.63004         9.30733        -3.09308
   C       19.76514         9.91677        -3.37324
   H        1.30754        -4.45313        -8.10242
   H        4.82922        -5.72364        -9.72908
   H        5.58043        -4.02437        -7.75604
   H        2.11515        -2.75144        -6.12931
   H        5.16299        -2.52909        -5.96880
   H        4.88290        -0.97892        -4.21775
   H        1.90423        -1.65289        -4.26998
   H        3.39325         2.30058        -0.80975
   H        4.56532         1.10738        -4.30480
   H        5.46026         2.51019        -1.73671
   H        9.31237         4.56530        -4.06783
   H        8.60936         4.64984        -1.60328
   H        7.22322         2.03593        -0.80470
   H        5.83518         1.81065         3.83171
   H        9.44770         4.16466         5.25781
   H       10.35487         3.81133        -0.75234
   H       11.42309         5.35554         1.66202
   H       13.49753         6.33991         1.49451
   H       17.26244         8.12727         1.33444
   H       15.52406         9.19187         2.83383
   H       14.27495         8.55071         1.74353
   H       16.40054        10.36455         0.89532
   H       14.80204        10.70840         1.02598
   H       16.71122         5.72093         2.08933
   H       15.25256         6.39335         2.82566
   H       17.99232         7.16104         3.46594
   H       16.63896         7.78613         4.15341
   H       18.43716         8.33325        -0.52654
   H       19.54125         7.45838        -2.58352
   H       18.23660         7.07591        -4.68839
   H       16.05654         6.01256        -4.28256
   H       13.78684         5.14389        -3.34037
   H       11.85628         4.48389        -2.00037
   H       17.68135         9.81933        -3.17085
   H       20.71773         9.41694        -3.30248
   H       19.79025        10.94505        -3.69193
*
