# ORCA input file
# SCF done        -21.206018928909          0.000366745420
! B3LYP/G D3BJ Opt RIJCOSX def2-SVP def2/J
* xyz 0 1
   C       -0.56887         1.11892         0.00201
   N        0.74952         1.18331         0.00668
   C        1.36519         0.00448         0.00901
   C        2.79619         0.00544         0.01407
   N        3.93927         0.00613         0.01814
   N        0.75110        -1.17517         0.00697
   C       -0.56738        -1.11254         0.00228
   N       -1.27823         0.00272        -0.00038
   H       -1.10910         2.05696        -0.00002
   H       -1.10636        -2.05130         0.00048
*
