# ORCA input file
# SCF done       -216.979359895816          0.000610978507
! CAM-B3LYP def2-SVP def2/J RIJCOSX Grid4 TightSCF
%maxcore 5000
%tddft
    Mode sTDDFT
    Ethresh 5.0
    maxcore 5000
end

%pal
  nprocs 6
  end
* xyz 0 1
   C        2.61335        -9.78048        -8.58041
   S        1.31358        -9.07682        -7.71903
   C        0.11108        -9.83011        -8.71449
   C        0.73620       -10.60858        -9.68731
   C        2.16836       -10.58986        -9.60078
   N        2.89790       -11.37775       -10.41540
   C        2.27042       -12.13685       -11.26830
   O        3.03461       -12.92603       -12.03583
   C        2.74434       -14.32932       -12.04574
   C        3.28163       -14.99273       -10.78380
   C        0.84030       -11.99831       -11.48017
   C        0.10663       -12.62286       -12.63477
   N       -0.37312       -13.94620       -12.23985
   N        0.12929       -11.24883       -10.69424
   C       -1.29326        -9.71970        -8.55938
   C       -2.20848       -10.74033        -8.81239
   N       -1.93997       -12.08443        -9.10359
   O       -2.77580       -12.70274        -9.74631
   O       -0.91305       -12.59124        -8.67420
   C       -3.53150       -10.23821        -8.60266
   C       -3.44248        -8.95070        -8.16246
   C       -2.06939        -8.55375        -8.16128
   C       -1.58873        -7.25008        -8.03359
   C       -0.51191        -6.69485        -8.77089
   C       -0.50365        -5.33282        -8.60353
   C       -1.54112        -4.97373        -7.70950
   N       -1.76207        -3.65909        -7.29683
   O       -2.67146        -3.42208        -6.50617
   O       -1.03473        -2.79179        -7.75813
   C       -2.22476        -6.14705        -7.30664
   C       -3.18619        -6.20847        -6.29907
   C       -3.57902        -7.32439        -5.58889
   C       -4.57242        -7.29451        -4.61010
   C       -4.92686        -8.37152        -3.81246
   C       -5.94204        -8.13494        -2.89387
   S       -6.54637        -6.49680        -2.98788
   C       -5.38195        -6.06751        -4.31982
   C       -6.46729        -9.03538        -1.96050
   C       -7.48546        -8.79118        -1.03506
   C       -7.77313        -9.86754        -0.23070
   C       -6.98599       -10.99421        -0.50000
   S       -5.87396       -10.66888        -1.80535
   C       -7.01328       -12.23037         0.14965
   S       -5.94897       -13.53319        -0.31604
   C       -6.60287       -14.63557         0.97973
   C       -7.65456       -13.86513         1.71663
   C       -7.83292       -12.59223         1.22333
   C       -8.37535       -14.38970         2.80558
   C       -8.19863       -15.63418         3.33746
   C       -8.91301       -16.17509         4.43982
   C       -8.60534       -17.46128         4.89451
   C       -9.26718       -18.08152         5.93903
   C      -10.29416       -17.45868         6.64557
   C      -10.61298       -16.12553         6.25880
   C       -9.94679       -15.48563         5.14953
   N      -10.38272       -14.25890         4.90098
  Se      -11.65345       -13.84486         6.03850
   N      -11.54648       -15.38957         6.84241
   C      -10.97235       -18.03812         7.75604
   C      -11.15381       -19.35028         8.07096
   C      -11.49368       -19.72094         9.47326
   O      -11.83629       -18.97344        10.35900
   C      -11.26174       -21.17818         9.55651
   C      -11.30396       -21.99218        10.65109
   C      -11.00832       -23.36553        10.49751
   C      -10.67050       -23.86793         9.20735
   C      -10.36659       -25.23648         9.06315
   C      -10.39873       -26.06735        10.14776
   C      -10.73483       -25.56986        11.42268
   C      -11.03421       -24.24748        11.59525
   F      -10.75670       -26.40712        12.46865
   F      -10.10849       -27.36771        10.00836
   C      -10.64433       -23.00193         8.08993
   C      -10.94159       -21.67651         8.26161
   C      -11.01616       -20.57128         7.30813
   C      -11.17839       -20.71076         5.95310
   C      -11.48991       -19.64743         5.08215
   N      -11.78270       -18.83057         4.33046
   C      -11.12762       -21.94928         5.28250
   N      -11.07051       -22.93077         4.68962
   H        3.62122        -9.63605        -8.24897
   H        3.26071       -14.70501       -12.93158
   H        1.66761       -14.50995       -12.13261
   H        4.34091       -14.77743       -10.66404
   H        3.13995       -16.06753       -10.85041
   H        2.74955       -14.62172        -9.90983
   H        0.77906       -12.73924       -13.49069
   H       -0.70778       -11.93492       -12.91042
   H       -0.96039       -14.33097       -12.97239
   H       -0.94746       -13.86531       -11.40502
   H       -4.42104       -10.81970        -8.75386
   H       -4.26364        -8.29335        -7.95245
   H        0.10973        -7.24057        -9.45347
   H        0.15949        -4.62731        -9.06742
   H       -3.59372        -5.25040        -6.00266
   H       -3.08003        -8.26856        -5.75461
   H       -4.45145        -9.33556        -3.88401
   H       -4.76469        -5.23481        -3.97819
   H       -5.96119        -5.73691        -5.18289
   H       -7.97860        -7.83676        -0.97949
   H       -8.52590        -9.85787         0.53574
   H       -5.77324       -14.92964         1.62459
   H       -7.00580       -15.52745         0.49709
   H       -8.55216       -11.90999         1.64078
   H       -9.11882       -13.74508         3.24984
   H       -7.45389       -16.29184         2.90607
   H       -7.81231       -18.00024         4.39624
   H       -8.94984       -19.06886         6.24187
   H      -11.35491       -17.33011         8.48489
   H      -11.55750       -21.59407        11.62174
   H      -10.11124       -25.63463         8.09354
   H      -11.28946       -23.88208        12.57761
   H      -10.37899       -23.40743         7.12654
*
