# ORCA input file
# SCF done       -276.384189073802          0.000954068986
! CAM-B3LYP def2-SVP def2/J RIJCOSX Grid4 TightSCF
%maxcore 5000
%tddft
    Mode sTDDFT
    Ethresh 5.0
    maxcore 5000
end

%pal
  nprocs 6
  end
* xyz 0 1
   C       -0.30882        -1.01074        -3.42990
   O       -1.03054        -1.89372        -3.84492
   C        0.05586         0.22632        -4.14997
   C        0.90693         1.00463        -3.34622
   C        1.37719         2.21659        -3.82548
   C        0.98936         2.62720        -5.09595
   C        0.14312         1.84565        -5.88544
   C       -0.33150         0.63002        -5.41033
  Br       -0.36497         2.42934        -7.60868
  Br        1.63262         4.28097        -5.74806
   C        1.12630         0.31068        -2.07815
   C        1.90445         0.77645        -1.05169
   C        2.60884         1.99984        -1.08747
   N        3.20488         2.97962        -1.05458
   C        2.12706         0.12771         0.18205
   N        2.36152        -0.32583         1.21101
   C        0.37756        -0.93308        -2.12958
   C        0.31769        -1.86647        -1.13068
   C       -0.35734        -3.10089        -1.06650
   C       -0.29874        -3.89445         0.06808
   C       -1.01887        -5.09100        -0.02694
   C       -1.12261        -6.12735         0.93794
   C       -0.56824        -6.01303         2.26775
   C       -0.03770        -7.00472         3.04598
   C        0.33438        -6.55354         4.32882
   C        0.08791        -5.22995         4.55900
   S       -0.61291        -4.50890         3.15262
   C        0.34217        -4.43302         5.78449
  Cl        1.03556        -7.60130         5.50042
   C       -1.81837        -7.26141         0.54526
   C       -2.43695        -7.39360        -0.72866
   C       -2.34071        -6.35936        -1.68875
   C       -1.63297        -5.22260        -1.30312
   S       -1.33159        -3.84022        -2.31598
   C       -2.91895        -6.47107        -3.00841
   C       -3.46398        -5.47907        -3.77863
   C       -3.89736        -5.94061        -5.03763
   C       -3.67926        -7.27205        -5.25957
   S       -2.92677        -7.98465        -3.87894
   C       -4.00944        -8.08563        -6.45525
  Cl       -4.63846        -4.90209        -6.19124
   C       -3.15434        -8.59873        -0.83525
   C       -3.08062        -9.39794         0.27962
   S       -2.11690        -8.66339         1.54074
   C       -3.66436       -10.68258         0.49178
   C       -4.44115       -11.38523        -0.46111
   C       -5.02106       -12.67512        -0.18057
   N       -5.74676       -13.28626        -1.14191
   C       -5.91077       -12.71951        -2.29035
   C       -5.33947       -11.45379        -2.56642
   N       -4.64108       -10.83136        -1.67628
   F       -5.49500       -10.86152        -3.75105
   F       -6.63362       -13.37156        -3.20148
   C       -4.84485       -13.32971         1.06215
   C       -4.04136       -12.64271         1.99407
   C       -3.47181       -11.35057         1.71833
   N       -2.75818       -10.89739         2.75046
   S       -2.79487       -11.97728         3.93567
   N       -3.71631       -13.07344         3.21437
   C       -5.40353       -14.60020         1.39736
   C       -6.28860       -15.35913         0.67131
   C       -6.62939       -16.57933         1.28140
   C       -7.53000       -17.56129         0.80496
   C       -8.17086       -17.47263        -0.48705
   C       -9.41860       -17.91339        -0.83750
   C       -9.69721       -17.72993        -2.20670
   C       -8.67711       -17.16558        -2.92066
   S       -7.33616       -16.84247        -1.88249
   C       -8.62310       -16.83684        -4.36628
  Cl      -11.20176       -18.18495        -2.90749
   C       -7.73498       -18.65435         1.63763
   C       -7.07223       -18.83120         2.87984
   C       -6.18691       -17.83815         3.35915
   C       -5.98263       -16.73931         2.53507
   S       -4.97042       -15.37013         2.90664
   C       -5.54275       -17.97046         4.64783
   C       -6.08791       -18.42258         5.81712
   C       -5.16705       -18.41290         6.88562
   C       -3.92038       -17.96673         6.55006
   S       -3.87390       -17.52936         4.87671
   C       -2.71673       -17.84179         7.40963
  Cl       -5.59650       -18.92321         8.47371
   C       -7.36697       -20.08248         3.45897
   C       -8.21346       -20.86087         2.70948
   S       -8.74332       -20.02114         1.26269
   C       -8.70720       -22.14037         3.06986
   C       -9.31052       -23.06663         2.27864
   C      -10.18023       -24.11123         2.88342
   O      -10.23915       -24.43212         4.04563
   C      -10.99915       -24.61575         1.75680
   C      -10.56030       -24.03090         0.55360
   C       -9.40168       -23.18878         0.83732
   C       -8.43445       -22.83499        -0.06360
   C       -7.17900       -22.31591         0.32336
   N       -6.12584       -21.96151         0.60912
   C       -8.54440       -23.04414        -1.45348
   N       -8.60480       -23.17985        -2.59105
   C      -11.20281       -24.32858        -0.63549
   C      -12.27481       -25.21335        -0.60615
   C      -12.69575       -25.80184         0.58877
   C      -12.05549       -25.50258         1.78480
  Br      -14.14793       -27.01117         0.59643
  Br      -13.16839       -25.61052        -2.22325
   H        2.03076         2.84935        -3.24790
   H       -0.98598         0.01552        -6.00868
   H        0.87039        -1.64689        -0.22543
   H        0.27496        -3.60238         0.92874
   H        0.12118        -8.01340         2.71483
   H       -0.59623        -4.09446         6.22379
   H        0.93913        -3.55225         5.55223
   H        0.87208        -5.04072         6.51364
   H       -3.59311        -4.46246        -3.45808
   H       -4.58490        -8.96472        -6.16815
   H       -3.10078        -8.42705        -6.95128
   H       -4.58914        -7.49049        -7.15621
   H       -3.73155        -8.88647        -1.69071
   H       -6.68262       -15.02081        -0.26582
   H      -10.13893       -18.30945        -0.14600
   H       -8.02499       -17.57336        -4.90396
   H       -8.16906       -15.85916        -4.51641
   H       -9.62757       -16.83747        -4.78263
   H       -7.11778       -18.70585         5.93282
   H       -2.97437       -18.07467         8.43974
   H       -2.31523       -16.83077         7.36150
   H       -1.93728       -18.52784         7.07872
   H       -6.92096       -20.43628         4.37040
   H       -8.67930       -22.37593         4.12924
   H      -10.90342       -23.88653        -1.57245
   H      -12.37520       -25.95140         2.71247
*
