# ORCA input file
# SCF done       -218.400045254938          0.000714534683
! CAM-B3LYP def2-SVP def2/J RIJCOSX Grid4 TightSCF
%maxcore 5000
%tddft
    Mode sTDDFT
    Ethresh 5.0
    maxcore 5000
end

%pal
  nprocs 6
  end
* xyz 0 1
   C       -1.08906        -1.29432       -17.31200
   C       -0.00374        -1.46556       -18.13436
   C        0.46960        -2.72106       -18.56499
   N        0.89230        -3.71777       -18.94773
   C        0.80864        -0.41727       -18.61442
   N        1.53665         0.37569       -19.01444
   C       -1.86468        -2.35851       -16.68605
   C       -2.79641        -1.77249       -15.79360
   C       -3.66751        -2.52039       -15.03951
   C       -3.61430        -3.91213       -15.16643
   C       -2.68496        -4.48730       -16.06454
   C       -1.80551        -3.73112       -16.83128
   S       -2.80283        -6.21943       -16.06671
   C       -4.06624        -6.15954       -14.88634
   C       -4.39110        -4.90520       -14.50480
   C       -2.67759        -0.30296       -15.84950
   O       -3.41152         0.49470       -15.30207
   C       -1.58769        -0.02991       -16.81869
   C       -1.27215         1.21177       -17.29773
   C       -1.58475         2.43207       -16.64911
   C       -1.81670         3.61420       -17.39373
   C       -2.23723         4.83750       -16.76913
   N       -2.49593         5.91261       -17.51361
   C       -2.35321         5.84195       -18.82254
   C       -1.93376         4.62673       -19.44300
   N       -1.68795         3.55416       -18.73021
   C       -1.78307         4.57286       -20.85285
   N       -1.68179         4.57356       -21.99353
   C       -2.62261         6.99230       -19.60133
   N       -2.83700         7.91134       -20.25182
   C       -2.41746         4.94810       -15.34606
   C       -2.02626         3.80131       -14.60606
   C       -1.61675         2.57434       -15.24300
   N       -1.23057         1.66177       -14.35671
   S       -1.40892         2.24845       -12.87583
   N       -1.95552         3.71084       -13.28424
   C       -2.95800         6.12801       -14.83553
   C       -3.29945         6.49847       -13.54461
   C       -3.92881         7.73209       -13.24723
   C       -4.24250         7.91065       -11.92982
   C       -3.85972         6.82130       -11.12774
   S       -3.08491         5.57587       -12.08583
   C       -4.01938         6.63027        -9.76289
   C       -4.63387         7.45936        -8.79945
   C       -4.62516         6.93673        -7.54193
   C       -3.99350         5.66650        -7.43170
   S       -3.41232         5.17857        -9.01953
   C       -3.91410         4.91954        -6.28831
   C       -3.30277         3.64286        -6.08872
   C       -3.66346         2.90382        -4.94081
   C       -3.14790         1.64857        -4.73211
   C       -2.22047         1.12106        -5.65597
   C       -1.82047         1.85210        -6.76724
   C       -2.36165         3.09839        -6.97907
   C       -1.81087        -0.18858        -5.21928
   C       -2.47334        -0.48222        -4.01706
   C       -3.37916         0.66452        -3.60122
   C       -2.84235         1.19809        -2.25316
   C       -3.65028         2.29636        -1.57585
   C       -4.82653         0.12083        -3.51023
   C       -5.95461         1.09495        -3.82862
   C       -2.25994        -1.68367        -3.38775
   C       -1.37010        -2.61786        -3.94571
   C       -0.71608        -2.30295        -5.14702
   C       -0.92895        -1.10189        -5.78509
   C       -1.12960        -3.84518        -3.23414
   C       -0.36852        -4.88354        -3.64833
   C       -0.14862        -6.08178        -2.91586
   C       -0.19358        -6.33225        -1.57922
   C       -0.25410        -5.49718        -0.39646
   C        0.22484        -4.21955        -0.25817
   C        0.19357        -3.49124         0.94844
   N        0.17030        -2.83844         1.89278
   C        0.86656        -3.49232        -1.27972
   N        1.42239        -2.85635        -2.05719
   C       -0.69114        -6.34425         0.70964
   C       -0.67146        -7.69777         0.28522
   C       -0.28510        -7.75353        -1.13475
   O       -0.11650        -8.73410        -1.82344
   C       -0.98643        -8.73913         1.12456
   C       -1.34865        -8.43179         2.43941
   C       -1.38413        -7.07668         2.84804
   C       -1.05811        -6.02299         2.00223
   S       -1.87036        -6.93361         4.50777
   C       -2.01110        -8.65254         4.64025
   C       -1.71378        -9.31012         3.49849
   H       -4.36719        -2.04537       -14.36914
   H       -1.12065        -4.21543       -17.50726
   H       -4.49417        -7.08285       -14.54688
   H       -5.15292        -4.67388       -13.78219
   H       -0.79174         1.30890       -18.26338
   H       -3.17572         6.87078       -15.59485
   H       -4.14080         8.44839       -14.02150
   H       -4.72896         8.78468       -11.53475
   H       -5.07137         8.40612        -9.06073
   H       -5.05234         7.42160        -6.68172
   H       -4.42204         5.33702        -5.42634
   H       -4.37291         3.34219        -4.25733
   H       -1.09015         1.45020        -7.45252
   H       -2.02497         3.67665        -7.82321
   H       -1.82486         1.56001        -2.42415
   H       -2.77332         0.35012        -1.56781
   H       -3.70242         3.18854        -2.19242
   H       -3.16488         2.56602        -0.64002
   H       -4.65712         1.95998        -1.34462
   H       -4.97023        -0.28150        -2.50539
   H       -4.90969        -0.71568        -4.20965
   H       -5.95207         1.95294        -3.16387
   H       -6.90745         0.58196        -3.71175
   H       -5.88460         1.44521        -4.85539
   H       -2.76629        -1.92353        -2.46333
   H       -0.02145        -3.00743        -5.57483
   H       -0.41640        -0.87210        -6.70675
   H       -1.64446        -3.93326        -2.28432
   H        0.06200        -4.86933        -4.63957
   H        0.04356        -6.96796        -3.51577
   H       -0.95198        -9.75976         0.77641
   H       -1.10450        -5.00692         2.35782
   H       -2.31339        -9.07031         5.58086
   H       -1.74629       -10.37940         3.39324
*
