# ORCA input file
# SCF done       -140.361588485277          0.000740499347
! CAM-B3LYP def2-SVP def2/J RIJCOSX Grid4 TightSCF
%maxcore 5000
%tddft
    Mode sTDDFT
    Ethresh 5.0
    maxcore 5000
end

%pal
  nprocs 6
  end
* xyz 0 1
   C        1.02580         2.49014        -6.31346
   O       -0.21370         2.01157        -6.47358
   C       -1.00301         2.66223        -5.59936
   C       -0.28804         3.55711        -4.87377
   C        1.06227         3.45637        -5.33459
   C        2.22577         4.17683        -4.90485
   C        2.23245         5.10377        -3.92367
   C        3.36413         5.84080        -3.45964
   C        4.62036         5.77926        -3.96696
   C        5.73084         6.51397        -3.48050
   S        7.28349         6.32828        -4.28538
   C        8.01428         7.42692        -3.19755
   C        7.09898         7.91065        -2.25885
   C        5.81710         7.40274        -2.41414
   C        7.82602         8.83873        -1.36757
   O        7.38861         9.46134        -0.43011
   C        9.24418         8.83067        -1.89782
   C        9.30098         7.98142        -2.98148
   C       10.32486         9.56405        -1.36921
   C       10.24943        10.38492        -0.28127
   C       11.35962        11.09301         0.21648
   S       11.24171        12.12628         1.63218
   C       12.92627        12.59770         1.60308
   C       13.55252        11.96800         0.52093
   C       12.67158        11.14323        -0.22930
   O       13.32237        10.56163        -1.25733
   C       14.60617        11.00692        -1.17011
   N       15.52569        10.55227        -2.13725
   O       16.66799        10.96528        -2.03945
   O       15.12253         9.78844        -2.99100
   C       14.81075        11.86101        -0.11493
   C       13.46610        13.46911         2.55829
   S       15.16650        13.92562         2.50855
   C       14.96488        14.90070         3.89991
   C       13.64840        14.87184         4.37412
   C       12.80296        14.07216         3.62778
   C       13.59218        15.74261         5.57105
   O       12.63286        15.98076         6.26321
   C       15.00576        16.25889         5.72421
   C       15.77563        15.73420         4.71164
   C       15.45419        17.13086         6.74458
   C       14.67385        17.62529         7.73692
   C       15.18617        18.49349         8.74542
   C       14.47781        19.04983         9.81794
   N       15.37919        19.79208        10.50294
   C       15.29839        20.55195        11.61520
   C       16.42851        21.18142        12.05064
   C       17.62414        21.00894        11.31917
   N       17.71520        20.27694        10.24301
   C       16.62735        19.66126         9.81196
   N       16.48967        18.88667         8.77282
   C       13.05635        18.92986        10.22434
   H        1.79949         2.08293        -6.93508
   H       -2.04269         2.40196        -5.59081
   H       -0.66520         4.20662        -4.11238
   H        3.13772         3.92317        -5.42626
   H        1.30104         5.32115        -3.41909
   H        3.17837         6.50584        -2.62759
   H        4.82679         5.13262        -4.80829
   H        4.98333         7.65790        -1.78687
   H       10.17666         7.76971        -3.56778
   H       11.27507         9.44882        -1.87574
   H        9.31125        10.50965         0.23793
   H       15.73877        12.32836         0.14185
   H       11.75754        13.91248         3.82089
   H       16.82261        15.92101         4.55804
   H       16.49744        17.41853         6.72982
   H       13.62783        17.36547         7.78992
   H       14.34059        20.62652        12.11081
   H       16.40853        21.79665        12.93395
   H       18.53557        21.49450        11.63801
   H       12.52308        18.28535         9.53277
   H       12.57382        19.90867        10.23049
   H       12.97704        18.50603        11.22683
*
