# ORCA input file
# SCF done       -158.570950338162          0.000234168405
! CAM-B3LYP def2-SVP def2/J RIJCOSX Grid4 TightSCF
%maxcore 5000
%tddft
    Mode sTDDFT
    Ethresh 5.0
    maxcore 5000
end

%pal
  nprocs 6
  end
* xyz 0 1
   C      -15.96841        15.08301        -0.64198
   O      -16.49793        14.24443        -1.54067
   C      -15.58478        13.28397        -1.77725
   C      -14.46699        13.49177        -1.03963
   C      -14.70153        14.68096        -0.27913
   C      -13.78259        15.27286         0.64518
   C      -14.02027        16.40092         1.35882
   C      -13.13534        17.00221         2.28997
   C      -11.88700        16.55703         2.63002
   C      -11.07601        17.18443         3.58101
   C       -9.82841        16.73694         3.95777
   C       -8.98039        17.29353         4.93808
   C       -7.81134        16.61021         5.12368
   C       -7.67296        15.48368         4.29219
   S       -9.07021        15.31441         3.25890
   C       -6.61792        14.57999         4.25464
   C       -5.47631        14.54433         5.07056
   C       -4.63732        13.49510         4.80426
   C       -5.06631        12.65632         3.75897
   S       -6.58584        13.24937         3.11993
   C       -4.39876        11.52326         3.32005
   C       -4.72734        10.66452         2.28402
   C       -4.03600         9.49715         1.91498
   C       -4.67186         8.90328         0.80926
   C       -5.84222         9.70722         0.48972
   O       -6.73299         9.56590        -0.32390
   N       -5.78541        10.75831         1.39898
   C       -3.98508         7.71508         0.52138
   O       -2.97431         7.56927         1.44921
   C       -2.94393         8.64601         2.31922
   O       -2.12573         8.73812         3.19851
   C       -4.11459         6.70747        -0.41672
   C       -4.85623         6.70378        -1.59163
   C       -4.99783         5.57798        -2.43074
   C       -5.68837         5.82399        -3.58336
   C       -6.09835         7.16500        -3.70789
   S       -5.62534         8.09114        -2.30339
   C       -6.77433         7.74102        -4.77621
   C       -7.20819         7.11139        -5.96135
   C       -7.81560         7.95494        -6.84144
   C       -7.89552         9.30455        -6.40776
   S       -7.17240         9.43732        -4.80848
   C       -8.43119        10.31468        -7.16262
   C       -8.57008        11.70024        -6.89230
   C       -8.24907        12.33186        -5.69142
   C       -8.41207        13.69612        -5.51184
   C       -8.89550        14.52729        -6.51288
   C       -9.23235        13.92271        -7.75843
   C       -9.08598        12.52682        -7.94402
   N       -9.43263        11.96401        -9.11416
   C       -9.88493        12.71807       -10.08496
   C      -10.28572        12.03661       -11.36127
   C      -10.03917        10.53438       -11.32418
   C      -10.00124        14.12610        -9.91092
   C      -10.44372        15.05055       -11.00619
   C       -9.24686        15.48210       -11.85685
   N       -9.69019        14.68660        -8.77012
   C       -9.07263        15.95752        -6.37073
   C       -8.85749        16.67693        -5.27157
   H      -16.57139        15.91503        -0.33783
   H      -15.84865        12.52036        -2.48170
   H      -13.58089        12.89136        -1.02291
   H      -12.84376        14.74959         0.75580
   H      -14.97136        16.89804         1.22191
   H      -13.49534        17.89800         2.78102
   H      -11.48590        15.66877         2.16117
   H      -11.44876        18.07373         4.07316
   H       -9.25912        18.17768         5.48395
   H       -7.05343        16.89186         5.83234
   H       -5.29971        15.27655         5.83755
   H       -3.72088        13.30300         5.33315
   H       -3.49655        11.26002         3.85581
   H       -6.48585        11.48305         1.41833
   H       -3.51828         5.82505        -0.22269
   H       -4.59287         4.61951        -2.15774
   H       -5.89833         5.08246        -4.33277
   H       -7.06128         6.06069        -6.13459
   H       -8.20927         7.65514        -7.79662
   H       -8.79556        10.02606        -8.14116
   H       -7.86998        11.74710        -4.86853
   H       -8.14593        14.12041        -4.55613
   H       -9.73239        12.48201       -12.19202
   H      -11.34816        12.23118       -11.53857
   H       -8.98544        10.33120       -11.15366
   H      -10.33836        10.08162       -12.26655
   H      -10.60847        10.08032       -10.51788
   H      -10.88582        15.93460       -10.54478
   H      -11.19245        14.56787       -11.63546
   H       -8.51541        15.99286       -11.23542
   H       -9.57059        16.15969       -12.64313
   H       -8.76399        14.62330       -12.31815
   H       -9.42059        16.44287        -7.27231
   H       -8.51860        16.24552        -4.34499
   H       -9.01933        17.74108        -5.26330
*
