# ORCA input file
# SCF done       -120.732249040493          0.000415456397
! CAM-B3LYP def2-SVP def2/J RIJCOSX Grid4 TightSCF
%maxcore 5000
%tddft
    Mode sTDDFT
    Ethresh 5.0
    maxcore 5000
end

%pal
  nprocs 6
  end
* xyz 0 1
   C        0.58515        -1.73475         0.42776
   C       -0.59163        -1.45756         0.53032
   C       -1.90960        -1.02231         0.55268
   C       -3.06804        -1.73976         0.38731
   C       -4.21210        -0.92777         0.32694
   C       -3.93754         0.40915         0.42003
   C       -4.84704         1.53828         0.23431
   C       -5.97548         1.65824         1.00571
   C       -6.81768         2.77765         0.87027
   N       -7.92576         2.88175         1.63286
   C       -8.65127         3.95773         1.48493
   C       -8.30626         4.97633         0.57256
   N       -7.24407         4.90250        -0.18361
   C       -6.47301         3.80226        -0.05626
   C       -5.32351         3.65428        -0.85422
   C       -4.53503         2.53693        -0.74555
   C       -3.36733         2.32764        -1.60247
   C       -3.17355         1.16977        -2.25399
   C       -1.95351         0.73941        -2.77749
   C       -0.90215         0.17540        -2.99911
   C        0.30661        -0.48152        -3.17414
   C        0.51597        -1.72300        -3.72991
   C        1.85124        -2.12958        -3.67497
   C        2.68489        -1.21596        -3.07282
   C        4.10832        -1.31220        -2.84870
   C        4.75302        -0.37779        -1.99868
   C        6.09073        -0.43991        -1.75101
   C        6.87175        -1.45136        -2.34700
   N        8.19167        -1.52876        -2.08866
   C        8.85936        -2.48136        -2.68122
   C        8.24317        -3.38574        -3.57149
   N        6.96597        -3.34613        -3.83389
   C        6.24167        -2.38349        -3.21835
   C        4.86145        -2.30029        -3.45164
   S        1.79118         0.18621        -2.56051
   S       -2.24316         0.68472         0.69097
   C        1.93479        -2.06604         0.31590
   C        2.37109        -3.17469        -0.31054
   C        3.74915        -3.58332        -0.46542
   C        4.81460        -2.93175         0.20899
   C        6.10562        -3.34445         0.07301
   C        6.41516        -4.43989        -0.75984
   N        7.69092        -4.85312        -0.88890
   C        7.90857        -5.87157        -1.67943
   C        6.86750        -6.51656        -2.37687
   N        5.62148        -6.14554        -2.26705
   C        5.36094        -5.09861        -1.45402
   C        4.04030        -4.65705        -1.28453
   H       -3.08235        -2.81055         0.29003
   H       -5.20529        -1.30855         0.16407
   H       -6.22526         0.91460         1.74693
   H       -9.53831         4.03303         2.09975
   H       -8.91766         5.86247         0.46514
   H       -5.09681         4.42696        -1.57303
   H       -2.62270         3.11112        -1.63547
   H       -3.96583         0.42915        -2.28401
   H       -0.27917        -2.30699        -4.15785
   H        2.19152        -3.07582        -4.05441
   H        4.15344         0.39624        -1.54033
   H        6.58222         0.26696        -1.10105
   H        9.91611        -2.54526        -2.46148
   H        8.81651        -4.15404        -4.07417
   H        4.42447        -3.02308        -4.12104
   H        2.62111        -1.34963         0.74876
   H        1.63659        -3.83319        -0.75696
   H        4.59571        -2.09808         0.85809
   H        6.91653        -2.85385         0.58880
   H        8.93571        -6.19918        -1.77367
   H        7.06929        -7.35342        -3.03246
   H        3.25953        -5.18142        -1.81470
*
