# ORCA input file
# SCF done       -153.134201794808          0.000224926308
! CAM-B3LYP def2-SVP def2/J RIJCOSX Grid4 TightSCF
%maxcore 5000
%tddft
    Mode sTDDFT
    Ethresh 5.0
    maxcore 5000
end

%pal
  nprocs 6
  end
* xyz 0 1
   C       -2.86911       -11.64851        -0.03159
   C       -2.78891       -11.03123         1.19363
   N       -2.54992        -9.73319         1.37721
   C       -2.36203        -8.91874         0.35277
   C       -2.42506        -9.42495        -0.97694
   C       -2.68708       -10.82942        -1.15573
   N       -2.72646       -11.16961        -2.44540
   S       -2.46508        -9.85897        -3.33592
   N       -2.28570        -8.79127        -2.13897
   C       -2.11598        -7.54351         0.67817
   C       -1.84916        -6.57333        -0.25294
   C       -1.62084        -5.23377         0.04733
   C       -1.55957        -4.78724         1.44477
   C       -1.79750        -5.58829         2.51025
   S       -2.19530        -7.25314         2.40453
   C       -1.19773        -3.41413         1.38662
   C       -1.04204        -3.02506         0.05517
   C       -0.67924        -1.66428        -0.06432
   C       -0.56947        -1.06973         1.15155
   S       -0.90220        -2.12570         2.48552
   C       -1.32781        -4.14447        -0.80160
   C       -1.28800        -4.06215        -2.21285
   C       -1.83251        -4.94135        -3.09791
   C       -1.72809        -4.86993        -4.51382
   C       -0.94325        -3.97847        -5.21096
   C       -0.82272        -3.91923        -6.59582
   C       -1.48317        -4.91804        -7.45098
   C       -2.31011        -5.88266        -6.99230
   S       -2.70439        -6.08623        -5.33590
   C       -1.03946        -4.64216        -8.77298
   C       -0.16990        -3.55342        -8.75488
   C        0.30597        -3.22775       -10.04407
   C       -0.19851        -4.06483       -10.98784
   S       -1.27050        -5.27127       -10.35746
   C       -0.03767        -3.07050        -7.40453
   C        0.78170        -1.96499        -7.08354
   C        0.78303        -1.22559        -5.94057
   C        1.69286        -0.17116        -5.64818
   C        2.69223         0.26008        -6.48884
   C        3.64271         1.23274        -6.19165
   C        3.55284         2.01427        -4.94838
   C        2.64542         1.78403        -3.97492
   S        1.47235         0.53352        -4.04681
   C        4.58182         2.99008        -5.04213
   C        5.27641         2.82528        -6.24083
   C        6.32541         3.76104        -6.38015
   C        6.39663         4.59515        -5.31045
   S        5.20590         4.28127        -4.09191
   C        4.71975         1.71185        -6.96289
   C        5.22368         1.24086        -8.20473
   C        4.98705         0.01633        -8.73300
   C        5.40255        -0.46806       -10.01440
   C        6.30374         0.13246       -10.88675
   N        6.67134        -0.35003       -12.07496
   C        6.17799        -1.47465       -12.52407
   C        5.24228        -2.20519       -11.76894
   C        4.84900        -1.68924       -10.48731
   N        3.94157        -2.46222        -9.89192
   S        3.63149        -3.72078       -10.85052
   N        4.61654        -3.34700       -12.06426
   H       -3.06369       -12.70167        -0.13987
   H       -2.92160       -11.59465         2.10716
   H       -1.79424        -6.91051        -1.27643
   H       -1.75060        -5.21575         3.52176
   H       -0.50576        -1.14887        -0.99189
   H       -0.30873        -0.05133         1.36410
   H       -0.79525        -3.17624        -2.59251
   H       -2.43236        -5.75985        -2.72974
   H       -0.34682        -3.30127        -4.62071
   H       -2.78600        -6.59677        -7.64578
   H        0.98036        -2.42070       -10.26526
   H       -0.01132        -4.05533       -12.04392
   H        1.46436        -1.69130        -7.87714
   H        0.04694        -1.42106        -5.17488
   H        2.71734        -0.18683        -7.46877
   H        2.60421         2.36617        -3.06786
   H        6.99239         3.81937        -7.22122
   H        7.08910         5.39774        -5.14699
   H        5.85950         1.93432        -8.74053
   H        4.42878        -0.71248        -8.16592
   H        6.78510         1.06264       -10.61912
   H        6.51201        -1.81714       -13.49214
*
