# ORCA input file
# SCF done       -103.249917145655          0.000564906255
! CAM-B3LYP def2-SVP def2/J RIJCOSX Grid4 TightSCF
%maxcore 5000
%tddft
    Mode sTDDFT
    Ethresh 5.0
    maxcore 5000
end

%pal
  nprocs 6
  end
* xyz 0 1
   N       -4.07151       -15.15076       -24.22141
   C       -3.49024       -15.90601       -25.16879
   O       -2.49722       -15.55837       -25.77408
   C       -4.16508       -17.25261       -25.50139
   N       -4.17714       -17.36182       -26.94490
   C       -5.59623       -17.37981       -24.97516
   S       -5.48200       -17.76632       -23.19541
   C       -3.73357       -18.32128       -23.30001
   C       -2.80015       -17.42627       -22.53799
   N       -1.50698       -17.70439       -22.67163
   C       -0.65162       -16.92213       -22.04732
   C       -1.06793       -15.84534       -21.25906
   C       -0.12142       -14.95061       -20.60206
   N        1.17627       -15.21851       -20.74263
   C        2.03062       -14.38666       -20.18714
   C        1.61647       -13.25868       -19.47156
   C        2.56310       -12.31554       -18.89445
   N        3.85913       -12.52114       -19.11796
   C        4.72122       -11.66058       -18.62569
   C        4.31960       -10.54340       -17.87587
   N        5.16226        -9.56994       -17.41106
   C        6.59151        -9.75296       -17.25115
   C        7.29439        -9.95217       -18.60978
   N        6.71977        -9.27448       -19.62173
   O        8.30758       -10.59932       -18.72407
   C        6.94657       -10.86660       -16.25353
   C        6.56989       -10.37954       -14.86030
   S        6.65720        -8.54536       -14.87142
   C        7.16674        -8.48412       -16.62196
   C        2.93113       -10.43695       -17.68652
   N        2.07599       -11.29566       -18.18617
   C        0.23285       -13.09063       -19.36192
   N       -0.62234       -13.92109       -19.91933
   C       -2.44820       -15.66978       -21.16113
   N       -3.30117       -16.44909       -21.79826
   C       -3.38186       -18.37639       -24.78264
   H       -3.59341       -14.30457       -23.95408
   H       -4.73576       -15.53860       -23.56628
   H       -4.18115       -18.32887       -27.24772
   H       -3.35508       -16.90167       -27.32357
   H       -6.09873       -18.20499       -25.48142
   H       -6.17931       -16.47338       -25.11795
   H       -3.68311       -19.31544       -22.84807
   H        0.39880       -17.14503       -22.17316
   H        3.08180       -14.60982       -20.30908
   H        5.76231       -11.86712       -18.83692
   H        4.75469        -8.95779       -16.71352
   H        7.11174        -9.35684       -20.54520
   H        5.84276        -8.79905       -19.50032
   H        8.01840       -11.05311       -16.33027
   H        6.42150       -11.79210       -16.49070
   H        7.24519       -10.75337       -14.09397
   H        5.54788       -10.64957       -14.59407
   H        8.25513        -8.48348       -16.67957
   H        6.77554        -7.57245       -17.06948
   H        2.51148        -9.62051       -17.10978
   H       -0.18215       -12.25646       -18.81249
   H       -2.86792       -14.87391       -20.56122
   H       -3.69126       -19.33607       -25.20487
   H       -2.30591       -18.25900       -24.91807
*
