# ORCA input file
# SCF done       -178.447092592084          0.000468826136
! CAM-B3LYP def2-SVP def2/J RIJCOSX Grid4 TightSCF
%maxcore 5000
%tddft
    Mode sTDDFT
    Ethresh 5.0
    maxcore 5000
end

%pal
  nprocs 6
  end
* xyz 0 1
   C       -5.31198         2.01982         5.78498
   C       -4.64644         0.84292         5.51034
   C       -3.44552         0.45508         6.12912
   N       -2.47135         0.07090         6.60454
   C       -5.03946        -0.11235         4.55651
   N       -5.26796        -0.94289         3.79439
   C       -4.81284         3.07005         6.67416
   C       -5.64238         4.20570         6.52582
   C       -5.41531         5.38644         7.18553
   C       -4.33733         5.43615         8.07581
   C       -3.54629         4.28051         8.26045
   C       -3.75594         3.09558         7.56083
   S       -2.30519         4.54372         9.44826
   C       -2.85154         6.18383         9.66352
   C       -3.90928         6.52024         8.89016
  Br       -1.99420         7.29450        10.90620
   C       -6.75880         3.87228         5.61762
   O       -7.66377         4.63087         5.31266
   C       -6.54815         2.47268         5.21909
   C       -7.46881         1.71846         4.49719
   C       -8.68137         2.23224         4.07557
   C       -9.69160         1.55085         3.41227
   C      -10.91293         2.13780         3.03111
   C      -11.76263         1.28708         2.38044
   C      -11.24625        -0.00961         2.21596
   S       -9.65104        -0.12798         2.92824
   C      -11.87596        -1.05912         1.55145
   C      -13.14009        -0.99984         0.93204
   C      -13.49647        -2.15523         0.29667
   C      -12.53065        -3.17636         0.38809
   S      -11.16025        -2.63527         1.33364
   C      -12.60554        -4.41696        -0.21401
   C      -11.62756        -5.39998        -0.12616
   O      -10.52245        -5.23720         0.66253
   C      -11.52707        -6.63924        -0.76206
   C      -12.19805        -7.54361        -1.70010
   O      -13.24236        -7.44256        -2.29143
   N      -11.32807        -8.62833        -1.78195
   C      -10.17428        -8.52249        -1.00181
   O       -9.30596        -9.35412        -0.93614
   C      -10.32254        -7.22127        -0.34851
   C       -9.71434        -6.33535         0.54848
   C       -8.52950        -6.46706         1.26435
   C       -8.07910        -5.57119         2.21536
   C       -6.90172        -5.77647         2.91284
   C       -6.40901        -4.98820         3.94394
   C       -5.20851        -5.22152         4.63661
   C       -4.96262        -4.32392         5.64040
   C       -5.96084        -3.34704         5.77599
   S       -7.21836        -3.58412         4.59564
   C       -5.95900        -2.30760         6.70860
   C       -4.98041        -2.07732         7.68533
   C       -5.19391        -0.94082         8.42225
   C       -6.34249        -0.22902         8.05194
   S       -7.18336        -1.06652         6.76475
   C       -6.70912         1.01365         8.55601
   C       -7.75226         1.80329         8.13029
   C       -7.93920         3.10482         8.58522
   C       -8.86858         4.04987         8.12266
   C       -8.72500         5.29325         8.67693
   C       -7.68126         5.37669         9.61747
   S       -6.90418         3.81955         9.80002
   C       -7.23588         6.48318        10.31820
   C       -7.69893         7.81969        10.20798
   C       -7.02871         8.70579        10.98326
   C       -5.98268         8.12635        11.77304
   S       -5.92868         6.38027        11.47141
   C       -5.14151         8.74653        12.61376
   H       -6.05708         6.24043         7.03329
   H       -3.11377         2.24646         7.72571
   H       -4.37130         7.49096         8.89276
   H       -7.25067         0.67818         4.28923
   H       -8.88310         3.27440         4.28198
   H      -11.12838         3.17016         3.24162
   H      -12.73307         1.57167         2.01726
   H      -13.75287        -0.11755         0.95657
   H      -14.41728        -2.29934        -0.23953
   H      -13.46574        -4.64916        -0.82342
   H      -11.51686        -9.43249        -2.36263
   H       -7.96188        -7.36293         1.05752
   H       -8.67470        -4.69417         2.43237
   H       -6.30316        -6.64005         2.65050
   H       -4.55677        -6.03745         4.37976
   H       -4.08885        -4.34605         6.26506
   H       -4.13540        -2.72554         7.82219
   H       -4.53825        -0.59357         9.20062
   H       -6.05894         1.41240         9.32667
   H       -8.42603         1.43521         7.36780
   H       -9.59756         3.80174         7.37222
   H       -9.33613         6.13947         8.42107
   H       -8.50655         8.07974         9.54701
   H       -7.22926         9.76144        11.02637
   H       -5.20423         9.80942        12.76637
   H       -4.38014         8.21165        13.15078
*
