# ORCA input file
# SCF done       -167.397305620656          0.000456677993
! CAM-B3LYP def2-SVP def2/J RIJCOSX Grid4 TightSCF
%maxcore 5000
%tddft
    Mode sTDDFT
    Ethresh 5.0
    maxcore 5000
end

%pal
  nprocs 6
  end
* xyz 0 1
   C       -2.55269         2.96174        -1.01330
   C       -1.24695         2.97122        -1.41931
   C       -0.16953         3.38002        -0.60237
   N        0.74708         3.69876         0.00993
   C       -0.77810         2.62745        -2.70663
   N       -0.31219         2.38342        -3.72727
   C       -3.03457         3.40126         0.28803
   C       -4.44940         3.45319         0.25745
   C       -5.19863         3.85354         1.33739
   C       -4.52018         4.20592         2.50823
   C       -3.10538         4.14164         2.53271
   C       -2.34766         3.74599         1.43905
   S       -2.47022         4.61818         4.07817
   C       -4.08945         4.89650         4.66152
   C       -5.05801         4.64411         3.74882
  Br       -4.34862         5.49345         6.41974
   C       -4.93068         3.04736        -1.07917
   O       -6.05910         3.16416        -1.49568
   C       -3.71913         2.57018        -1.80602
   C       -3.65193         1.84899        -2.94875
   C       -4.70332         1.27612        -3.76234
   C       -4.39357         0.82790        -4.99883
   C       -6.01762         1.12562        -3.27576
   C       -7.15510         0.90528        -2.92487
   C       -8.45892         0.72462        -2.47074
   C       -8.96097         1.45581        -1.45132
   C      -10.30366         1.38323        -0.98122
   S      -11.04884         2.87970        -0.52343
   C      -12.64348         2.18685        -0.41530
   C      -12.58861         0.81897        -0.75747
   C      -11.24920         0.34645        -0.97538
   C      -11.06862        -1.05877        -1.10055
   C       -9.74873        -1.75526        -0.91551
   F       -8.84154        -1.05157        -0.22559
   F       -9.90891        -2.90192        -0.22495
   F       -9.15931        -2.12624        -2.07137
   C      -12.16068        -1.87343        -1.27927
   C      -13.45959        -1.34824        -1.31431
   C      -13.67558        -0.03216        -1.01302
   C      -13.67748         3.04745        -0.01934
   C      -14.89855         2.80131         0.56750
   C      -15.82585         3.81833         0.90909
   C      -16.93232         3.38188         1.57280
   C      -16.94291         1.99016         1.80572
   S      -15.49987         1.25514         1.14225
   C      -17.90411         1.23199         2.44591
   C      -19.11537         1.66555         3.02953
   C      -19.84628         0.66352         3.58906
   C      -19.25364        -0.62177         3.48262
   S      -17.72434        -0.50186         2.63159
   C      -19.77363        -1.79063         3.97035
   C      -19.20810        -3.07476         3.88558
   S      -17.68900        -3.46745         3.09527
   C      -17.78432        -5.14276         3.46377
   C      -18.93217        -5.42011         4.16881
   C      -19.72301        -4.25415         4.39848
   O      -20.83872        -4.55602         5.09421
   C      -20.76963        -5.89776         5.31164
   N      -21.82566        -6.50140         6.03466
   O      -21.73852        -7.70131         6.21803
   O      -22.73188        -5.79335         6.41717
   C      -19.65028        -6.48268         4.78294
   H       -6.27527         3.89090         1.28272
   H       -1.27331         3.71118         1.50758
   H       -6.10868         4.76195         3.94127
   H       -2.66367         1.61709        -3.32692
   H       -3.39404         0.90858        -5.39102
   H       -5.14483         0.39982        -5.63912
   H       -9.06090         0.00064        -3.00203
   H       -8.34391         2.24532        -1.04246
   H      -12.01754        -2.93840        -1.38067
   H      -14.28887        -2.00291        -1.52749
   H      -14.67662         0.36213        -0.99267
   H      -13.43576         4.10128        -0.10856
   H      -15.64367         4.84599         0.64793
   H      -17.73210         4.02038         1.90161
   H      -19.41229         2.69878         3.02003
   H      -20.79444         0.79926         4.07816
   H      -20.72308        -1.74074         4.48710
   H      -17.00632        -5.80532         3.14701
   H      -19.39718        -7.52107         4.83684
*
