# ORCA input file
# SCF done       -204.638178552790          0.000519620266
! CAM-B3LYP def2-SVP def2/J RIJCOSX Grid4 TightSCF
%maxcore 5000
%tddft
    Mode sTDDFT
    Ethresh 5.0
    maxcore 5000
end

%pal
  nprocs 6
  end
* xyz 0 1
   C       -7.01111         4.00038        -0.59901
   C       -6.00996         3.65180         0.26956
   C       -4.75812         3.14192        -0.13075
   N       -3.72272         2.72713        -0.40280
   C       -6.11716         3.71885         1.67439
   N       -6.14695         3.72551         2.82227
   C       -6.99027         3.84043        -2.04527
   C       -8.27508         4.14637        -2.55982
   C       -8.57005         4.07857        -3.89966
   C       -7.55000         3.68993        -4.77422
   C       -6.26843         3.39133        -4.25175
   C       -5.96908         3.46006        -2.89757
   S       -5.15510         2.94173        -5.50806
   C       -6.40956         3.15465        -6.70077
   C       -7.60078         3.54350        -6.18736
  Br       -6.02695         2.84546        -8.51050
   C       -9.17069         4.54613        -1.45491
   O      -10.32129         4.91108        -1.54823
   C       -8.32499         4.49644        -0.23053
   C       -8.70134         5.01407         0.96560
   C      -10.03672         5.45405         1.28464
   C      -10.19282         6.73440         1.74531
   S      -11.81708         7.24506         1.87453
   C      -12.35352         5.65989         1.40097
   C      -11.30196         4.77265         1.13007
   C      -11.60326         3.41848         0.83954
   C      -10.48312         2.41529         0.74932
   C       -9.79893         2.22989         2.10502
   C      -12.92882         3.01297         0.72921
   C      -13.28852         1.61502         0.29418
   C      -13.30407         0.61977         1.45740
   C      -13.98316         3.91786         0.99967
   C      -15.41497         3.72606         0.99515
   C      -16.08083         4.88165         1.26529
   S      -15.07093         6.23999         1.57714
   C      -13.67178         5.24843         1.32186
   C      -16.15513         2.48185         0.82629
   C      -17.29955         2.38936         0.14476
   C      -18.02698         1.12782         0.02889
   C      -17.36123         0.00154        -0.34099
   S      -18.33204        -1.41893        -0.41448
   C      -19.70441        -0.49606         0.11054
   C      -19.41943         0.86410         0.30490
   C      -20.42956         1.71038         0.82423
   C      -20.09502         3.16773         0.98750
   C      -20.21212         3.91353        -0.34722
   C      -21.67640         1.19432         1.15587
   C      -22.69007         2.02872         1.89580
   C      -23.52588         2.93178         0.98731
   C      -21.98174        -0.16143         0.87511
   C      -23.19556        -0.92331         1.09136
   C      -23.01967        -2.24524         0.78673
   S      -21.46037        -2.65041         0.19944
   C      -20.96949        -0.99265         0.37246
   C      -24.49348        -0.43099         1.48226
   C      -25.38706        -1.16243         2.19590
   C      -26.70297        -0.79104         2.56062
   C      -27.39264         0.36367         2.29321
   C      -28.72310         0.64116         2.70691
   C      -29.19568         1.86409         2.33838
   C      -28.26575         2.63856         1.61307
   S      -26.77691         1.74296         1.40115
   C      -28.38966         3.91807         1.11093
   C      -29.48491         4.80370         1.15118
   C      -29.24709         6.00633         0.55342
   C      -27.94744         6.15525         0.01076
   S      -27.04485         4.67418         0.27836
   C      -27.48667         7.27571        -0.63836
   C      -26.22903         7.56978        -1.17743
   S      -26.07838         9.07573        -2.07909
   C      -24.39112         8.86804        -2.44324
   C      -23.95161         7.67380        -1.87587
   C      -24.97193         6.95750        -1.17891
   N      -24.36964         5.85689        -0.66980
   N      -23.06999         5.81277        -0.99465
   C      -22.79164         6.87482        -1.70682
   C      -23.71184         9.85626        -3.21325
   C      -22.42723         9.80335        -3.57824
   H       -9.55803         4.31721        -4.26107
   H       -4.97684         3.22999        -2.54672
   H       -8.48004         3.72155        -6.77913
   H       -7.94280         5.23209         1.70787
   H       -9.40525         7.43988         1.93171
   H       -9.74542         2.72973         0.01139
   H      -10.85827         1.44926         0.42295
   H       -9.30089         3.14076         2.42817
   H       -9.05188         1.44130         2.04276
   H      -10.52968         1.95710         2.86320
   H      -12.59213         1.27122        -0.47263
   H      -14.27339         1.64674        -0.17278
   H      -12.30213         0.45336         1.84338
   H      -13.70769        -0.33656         1.13046
   H      -13.91454         0.99350         2.27655
   H      -17.14323         5.00562         1.34541
   H      -15.79294         1.61822         1.36411
   H      -17.67524         3.24462        -0.39583
   H      -16.32552        -0.06965        -0.61159
   H      -19.07199         3.24593         1.36261
   H      -20.74703         3.64937         1.71293
   H      -19.70802         3.36990        -1.14267
   H      -19.77038         4.90446        -0.26240
   H      -21.25063         4.03864        -0.63941
   H      -22.17960         2.64683         2.63720
   H      -23.34812         1.35875         2.45045
   H      -22.92067         3.73554         0.58079
   H      -24.34683         3.36339         1.55706
   H      -23.94213         2.36739         0.15577
   H      -23.76734        -3.01339         0.81959
   H      -24.76485         0.54850         1.12792
   H      -25.07304        -2.13388         2.55671
   H      -27.25325        -1.52261         3.13994
   H      -29.28910        -0.08050         3.26987
   H      -30.17925         2.23059         2.57287
   H      -30.41563         4.53158         1.61590
   H      -29.96808         6.80240         0.48974
   H      -28.22173         8.06195        -0.76432
   H      -24.76966         5.10410        -0.13527
   H      -21.79522         7.03474        -2.06416
   H      -24.32049        10.70070        -3.51050
   H      -21.79150         8.98019        -3.30763
   H      -21.98362        10.58869        -4.16343
*
