# ORCA input file
# SCF done       -158.186413612409          0.000513849199
! CAM-B3LYP def2-SVP def2/J RIJCOSX Grid4 TightSCF
%maxcore 5000
%tddft
    Mode sTDDFT
    Ethresh 5.0
    maxcore 5000
end

%pal
  nprocs 6
  end
* xyz 0 1
   C       -9.97922       -21.28498         3.35591
   S       -8.93866       -19.93040         3.29053
   C       -8.15551       -20.49584         1.84583
   C       -8.70976       -21.71916         1.43762
   C       -9.75728       -22.15859         2.31785
   C      -10.43294       -23.38682         2.05480
   C      -11.45832       -23.81220         2.92315
   N      -12.28942       -24.15651         3.63521
   C      -10.07516       -24.14039         0.95801
   C       -9.05671       -23.71609         0.09923
   C       -8.37668       -22.53040         0.32113
   C       -7.35998       -22.16472        -0.58336
   N       -6.53254       -21.87151        -1.32535
   C       -7.11336       -19.78899         1.21608
   C       -6.56811       -18.60822         1.61263
   C       -5.51584       -17.98260         0.91892
   S       -4.87117       -16.45950         1.52460
   C       -3.66296       -16.30669         0.25494
   C       -3.79757       -17.40852        -0.58011
   C       -4.80912       -18.33153        -0.22549
   N       -4.77517       -19.33306        -1.16516
   C       -3.79068       -19.06757        -2.07973
   S       -3.38399       -19.97906        -3.37564
   N       -3.19668       -17.88760        -1.71400
   C       -2.74069       -15.25343         0.15701
   C       -2.55998       -14.11192         0.96379
   C       -1.48164       -13.28914         0.52307
   C       -1.16183       -12.11867         1.23338
   C       -1.88985       -11.78156         2.34102
   C       -2.95657       -12.58741         2.77252
   C       -3.29310       -13.73160         2.10227
   C       -0.82502       -13.78958        -0.62036
   S       -1.56494       -15.27657        -1.13175
   C        0.30184       -13.25066        -1.25321
   C        0.92074       -13.77412        -2.35421
   C        2.13500       -13.31519        -2.92033
   C        3.13179       -12.63848        -2.23848
   O        4.21778       -12.07820        -2.88002
   C        4.32032       -12.35847        -4.20889
   C        3.35676       -13.15950        -4.88898
   C        3.65797       -13.34390        -6.19824
   S        5.12279       -12.53907        -6.62285
   C        5.33057       -11.95013        -5.01627
   O        2.25193       -13.64603        -4.26115
   C        3.16069       -12.53972        -0.82283
   C        3.99440       -11.71174        -0.13506
   C        4.09229       -11.55378         1.26384
   S        5.35755       -10.50256         1.82698
   C        4.92069       -10.67883         3.48806
   C        3.84123       -11.55909         3.61531
   C        3.35722       -12.04740         2.35930
   C        2.24341       -12.91239         2.36820
   C        1.66006       -13.31447         3.53565
   C        0.48286       -14.23439         3.55368
   C        2.19489       -12.87279         4.78340
   O        1.56308       -13.37391         5.87991
   C        2.03602       -13.01087         7.15278
   C        3.26188       -12.01588         4.81872
   C        5.67024        -9.93224         4.45811
   C        5.25451        -9.52289         5.65712
   H      -10.69807       -21.37611         4.14515
   H      -10.58627       -25.07017         0.75821
   H       -8.79343       -24.32325        -0.75375
   H       -6.71615       -20.24857         0.33023
   H       -6.93558       -18.10726         2.49778
   H       -5.34692       -20.16770        -1.24034
   H       -2.43999       -17.47110        -2.22942
   H       -0.34494       -11.49465         0.90591
   H       -1.64680       -10.88619         2.89289
   H       -3.51687       -12.29539         3.64784
   H       -4.11400       -14.34088         2.44249
   H        0.68299       -12.33572        -0.82358
   H        0.43200       -14.56787        -2.90456
   H        3.10940       -13.89978        -6.92911
   H        6.17508       -11.34528        -4.76085
   H        2.50688       -13.21616        -0.30503
   H        4.65983       -11.08361        -0.71392
   H        1.82994       -13.27858         1.44465
   H        0.23496       -14.57094         2.55075
   H       -0.38284       -13.72609         3.97651
   H        0.69301       -15.09675         4.18361
   H        1.39469       -13.52856         7.86435
   H        1.95961       -11.93097         7.31686
   H        3.07312       -13.32793         7.30286
   H        3.69602       -11.70041         5.75101
   H        6.66084        -9.64484         4.12536
   H        4.25877        -9.70115         6.02114
   H        5.90525        -8.95869         6.30195
*
