# ORCA input file
# SCF done       -232.099126857112          0.000391229635
! CAM-B3LYP def2-SVP def2/J RIJCOSX Grid4 TightSCF
%maxcore 5000
%tddft
    Mode sTDDFT
    Ethresh 5.0
    maxcore 5000
end

%pal
  nprocs 6
  end
* xyz 0 1
   C        2.30255         5.62740        -2.20778
   C        1.04943         6.06963        -2.52844
   F        0.85998         6.74976        -3.67333
   C       -0.06209         5.84109        -1.70540
   C        0.10965         5.14934        -0.53898
   C        1.37970         4.66769        -0.16007
   C        2.49838         4.91412        -1.00897
   C        3.78372         4.44961        -0.64596
   C        3.94093         3.75653         0.52409
   C        2.81548         3.49586         1.35901
   C        1.56587         3.94192         1.03735
   C        3.24389         2.69557         2.52227
   O        2.57831         2.33357         3.46460
   C        4.67388         2.36432         2.26091
   C        5.12818         3.19275         1.15878
   C        6.41894         3.57797         0.91599
   C        7.51146         3.20689         1.72725
   N        8.42338         2.98990         2.38939
   C        6.78783         4.46036        -0.12005
   N        7.13208         5.15928        -0.96269
   C        5.27238         1.36184         2.94630
   C        6.48003         0.65097         2.61510
   C        7.27947         0.14195         3.64952
   C        8.43879        -0.52726         3.34230
   C        8.81797        -0.70261         1.99839
   C        8.00595        -0.25035         0.96674
   C        6.84580         0.42305         1.28109
   C       10.10525        -1.35762         1.96217
   C       10.52231        -1.59368         3.28299
   C        9.47562        -1.11988         4.26846
   C       10.03989        -0.06437         5.23339
   C       10.66884         1.11658         4.50233
   C        8.95271        -2.36592         5.02063
   C        7.75153        -2.14215         5.92971
   C       11.72379        -2.20940         3.53258
   C       12.55682        -2.57458         2.46284
   C       12.12719        -2.32510         1.15141
   C       10.91118        -1.72826         0.89398
   C       13.82000        -3.20612         2.75728
   C       14.85690        -3.34064         1.90595
   C       16.10236        -3.97577         2.20806
   C       17.15039        -3.94375         1.31854
   C       18.40009        -4.53226         1.51550
   C       18.64415        -5.37371         2.69396
   C       17.76396        -5.53355         3.70659
   S       16.22004        -4.79262         3.75814
   C       19.94237        -5.92484         2.51039
   C       20.48359        -5.45371         1.31623
   C       21.78082        -5.95978         1.08257
   C       22.17943        -6.78807         2.08342
   S       21.00968        -6.98254         3.34510
   C       19.54568        -4.55313         0.69232
   C       19.84857        -3.84624        -0.49177
   C       19.21431        -2.74926        -0.98909
   C       19.58950        -2.07725        -2.17154
   C       18.98912        -0.92977        -2.68047
   C       19.59299        -0.49336        -3.85156
   C       20.67008        -1.30808        -4.25478
   S       20.92377        -2.61898        -3.18157
   C       21.23026        -0.76936        -5.43016
   C       20.50284         0.39408        -5.77944
   C       19.45357         0.60021        -4.80308
   C       18.54110         1.61538        -4.77559
   C       17.55307         1.70700        -3.77465
   N       16.74341         1.76810        -2.96454
   C       18.53126         2.62335        -5.76184
   N       18.52939         3.43254        -6.57465
   C       21.00529         1.03043        -6.90291
   C       22.11213         0.37811        -7.43227
   S       22.50311        -1.08149        -6.51606
   C       22.87576         0.70281        -8.56646
   C       22.94070         1.88821        -9.24497
   C       23.44110         1.88001       -10.64547
   O       23.99537         0.96262       -11.20949
   C       23.06751         3.19452       -11.20127
   C       23.19011         3.65570       -12.47979
   C       22.72364         4.95273       -12.79201
   C       22.12641         5.74501       -11.76882
   C       21.65354         7.03228       -12.08928
   C       21.78196         7.49479       -13.36929
   C       22.36856         6.73280       -14.38857
   C       22.83014         5.47970       -14.09525
   F       21.33327         8.72591       -13.67778
   C       22.01899         5.24336       -10.45029
   C       22.49313         3.99130       -10.16982
   C       22.54850         3.23885        -8.91749
   C       22.49713         3.80755        -7.66906
   C       22.79470         3.12267        -6.47642
   N       23.05746         2.61417        -5.48042
   C       22.24247         5.17495        -7.43844
   N       22.04589         6.27867        -7.19191
   H        3.13620         5.82561        -2.86322
   H       -1.02659         6.21504        -2.01027
   H       -0.73132         4.96060         0.11123
   H        4.61224         4.64379        -1.30882
   H        0.72787         3.74116         1.68797
   H        4.73483         1.01780         3.82504
   H        6.99505         0.33761         4.67179
   H        8.28237        -0.41209        -0.06412
   H        6.19156         0.76276         0.49061
   H       10.78705        -0.53996         5.87309
   H        9.23512         0.30190         5.87173
   H       11.49252         0.78673         3.87277
   H       11.05458         1.83514         5.22172
   H        9.93757         1.61943         3.87478
   H        9.77905        -2.76157         5.61539
   H        8.69170        -3.12299         4.27597
   H        7.94932        -1.36775         6.66583
   H        7.52861        -3.06379         6.46333
   H        6.87303        -1.86776         5.35253
   H       12.05130        -2.39887         4.54484
   H       12.75033        -2.62477         0.32314
   H       10.59359        -1.55184        -0.12262
   H       13.93089        -3.57340         3.77055
   H       14.79293        -2.92589         0.90940
   H       16.96313        -3.43623         0.38344
   H       17.98088        -6.14047         4.57145
   H       22.38896        -5.73123         0.22622
   H       23.11041        -7.31346         2.16961
   H       20.72286        -4.19908        -1.02752
   H       18.39385        -2.29654        -0.45314
   H       18.15659        -0.44981        -2.19872
   H       20.57165         1.90388        -7.35501
   H       23.44220        -0.10789        -9.01488
   H       23.63705         3.03918       -13.24529
   H       21.19962         7.64766       -11.32835
   H       22.44264         7.15043       -15.38016
   H       23.28532         4.87340       -14.86400
   H       21.55289         5.85910        -9.69757
*
