# ORCA input file
# SCF done       -203.206334292065          0.000612302516
! CAM-B3LYP def2-SVP def2/J RIJCOSX Grid4 TightSCF
%maxcore 5000
%tddft
    Mode sTDDFT
    Ethresh 5.0
    maxcore 5000
end

%pal
  nprocs 6
  end
* xyz 0 1
   C        5.82405        -3.97923        -9.23990
   C        5.17016        -3.74351       -10.41727
   F        5.55985        -4.38852       -11.53136
   C        4.09829        -2.84579       -10.51519
   C        3.68900        -2.17973        -9.39365
   C        4.32839        -2.38340        -8.15355
   C        5.41556        -3.30229        -8.07447
   C        6.06844        -3.52855        -6.83999
   C        5.64919        -2.85193        -5.72744
   C        4.57211        -1.92281        -5.81500
   C        3.91845        -1.69287        -6.99094
   C        4.35225        -1.30360        -4.49355
   O        3.49623        -0.51226        -4.17264
   C        5.46629        -1.80691        -3.64130
   C        6.09992        -2.90217        -4.33943
   C        6.76039        -3.95431        -3.75871
   C        6.90237        -4.09284        -2.36331
   N        6.99335        -4.24713        -1.22916
   C        7.27942        -5.04744        -4.47993
   N        7.73707        -5.94690        -5.02681
   C        5.76940        -1.14105        -2.49180
   C        6.97104        -1.08945        -1.75540
   C        7.11771        -0.50081        -0.50610
   C        8.43500        -0.50769        -0.06543
   C        9.31913        -1.08667        -1.00170
   S        8.52340        -1.62509        -2.40469
   C       10.63114        -1.01913        -0.48219
   C       10.58866        -0.39801         0.77726
   C        9.20357        -0.06164         1.08261
   C        8.73746         0.55325         2.20673
   C        9.59651         0.94970         3.25350
   N       10.29749         1.27567         4.10023
   C        7.36911         0.84436         2.39377
   N        6.26038         1.09110         2.54743
   C       11.84448        -0.26488         1.36546
   C       12.84898        -0.78485         0.56650
   S       12.22227        -1.45334        -0.93427
   C       14.24238        -0.78347         0.83566
   N       15.16377        -1.38240         0.02862
   C       16.41804        -1.16682         0.52017
   C       16.29224        -0.40596         1.68265
   C       14.93864        -0.17295         1.88224
   C       17.56663        -1.64409        -0.09465
   C       18.57040        -2.06447        -0.63479
   C       19.72965        -2.49658        -1.25385
   C       19.87722        -3.59570        -2.08141
   C       21.18650        -3.71867        -2.54439
   C       22.03368        -2.70074        -2.07150
   S       21.22892        -1.60021        -1.04124
   C       23.32599        -2.90181        -2.61268
   C       23.30096        -4.05464        -3.42479
   C       21.95743        -4.60822        -3.40150
   C       21.50886        -5.72168        -4.04823
   C       22.35078        -6.50860        -4.86307
   N       23.02764        -7.14772        -5.53177
   C       20.16896        -6.15325        -3.95153
   N       19.07827        -6.49874        -3.87809
   C       24.52594        -4.31240        -4.02746
   C       25.49811        -3.38635        -3.67175
   S       24.85160        -2.15224        -2.58908
   C       26.80311        -3.33668        -4.20646
   C       27.87467        -2.57470        -3.85187
   C       28.93697        -2.31130        -4.86443
   O       29.11045        -2.90659        -5.90210
   C       29.66463        -1.13256        -4.35607
   C       30.63986        -0.39678        -4.96495
   C       31.17385         0.72723        -4.29578
   C       30.68190         1.07025        -3.00230
   C       31.21229         2.19815        -2.34669
   C       32.18584         2.93576        -2.96111
   C       32.68411         2.61373        -4.23098
   C       32.18002         1.52239        -4.88196
   F       32.69266         4.01359        -2.33656
   C       29.67768         0.28368        -2.39065
   C       29.18098        -0.80323        -3.05651
   C       28.18419        -1.79845        -2.67218
   C       27.83583        -2.11536        -1.38473
   C       27.10859        -3.27660        -1.05368
   N       26.55072        -4.23443        -0.75473
   C       28.24492        -1.37521        -0.25791
   N       28.53551        -0.79058         0.68611
   H        6.64283        -4.68058        -9.20096
   H        3.62088        -2.70034       -11.47120
   H        2.86565        -1.48324        -9.44396
   H        6.89308        -4.22325        -6.80734
   H        3.09876        -0.99153        -7.03501
   H        4.99422        -0.46498        -2.14146
   H        6.28277        -0.10745         0.04534
   H       12.03327         0.18142         2.32364
   H       14.95296        -1.90617        -0.80577
   H       17.10324        -0.07469         2.29940
   H       14.49985         0.38176         2.68654
   H       19.06485        -4.25884        -2.31670
   H       24.73088        -5.13690        -4.68634
   H       26.94485        -3.92632        -5.10813
   H       30.99952        -0.66771        -5.94623
   H       30.85553         2.47341        -1.36650
   H       33.45255         3.23283        -4.66598
   H       32.54762         1.25441        -5.86101
   H       29.31644         0.56794        -1.41473
*
