# ORCA input file
# SCF done       -202.902317081718          0.000317653471
! CAM-B3LYP def2-SVP def2/J RIJCOSX Grid4 TightSCF
%maxcore 5000
%tddft
    Mode sTDDFT
    Ethresh 5.0
    maxcore 5000
end

%pal
  nprocs 6
  end
* xyz 0 1
   C       13.03358         5.30885        -3.67061
   C       12.90640         6.30385        -4.59942
   F       13.99108         6.71212        -5.28655
   C       11.68124         6.92561        -4.87148
   C       10.56930         6.52300        -4.18455
   C       10.64310         5.50156        -3.21653
   C       11.89957         4.88454        -2.95192
   C       12.00169         3.86628        -1.97383
   C       10.88263         3.47959        -1.29072
   C        9.62516         4.08416        -1.57540
   C        9.49822         5.07330        -2.50537
   C        8.58668         3.44806        -0.73885
   O        7.40720         3.72643        -0.68190
   C        9.27740         2.35257        -0.02003
   C       10.69021         2.50447        -0.21658
   C       11.69467         2.05576         0.61250
   C       11.45126         1.41384         1.83906
   N       11.28831         0.96699         2.88552
   C       13.05823         2.31741         0.40407
   N       14.18857         2.49314         0.28537
   C        8.50019         1.38991         0.58800
   C        8.77048         0.06388         0.90844
   C        7.87341        -0.83137         1.55038
   C        8.36785        -2.16047         1.61542
   C        7.60144        -3.16027         2.23174
   C        6.37842        -2.83947         2.76232
   C        5.89090        -1.52700         2.69856
   C        6.62270        -0.52914         2.10654
   C        9.64877        -2.29954         1.02287
   S       10.20342        -0.78441         0.40235
   C       10.41757        -3.46488         0.92053
   C       11.70673        -3.45341         0.45437
   C       12.61275        -4.51061         0.32430
   C       12.50739        -5.92107         0.40816
   C       13.77352        -6.57139         0.31330
   C       13.85077        -7.97097         0.38777
   C       12.70246        -8.70355         0.53321
   C       11.45310        -8.06979         0.59203
   C       11.34840        -6.70428         0.52818
   C       14.85057        -5.67340         0.13494
   S       14.26434        -4.04409         0.05022
   C       16.23017        -5.93738         0.10705
   C       17.13301        -4.92533        -0.04735
   C       18.53409        -4.94760         0.10165
   C       19.20893        -3.73772         0.11712
   C       20.54870        -3.57212         0.40790
   C       21.44555        -4.72694         0.50537
   C       21.01516        -6.00981         0.49199
   S       19.36362        -6.46939         0.37591
   C       22.75314        -4.17648         0.61669
   C       22.68107        -2.78197         0.62763
   C       23.95355        -2.18510         0.76037
   C       24.93710        -3.11931         0.83995
   S       24.36563        -4.75201         0.76664
   C       21.30049        -2.37587         0.54276
   C       20.85268        -1.05035         0.65968
   C       19.58083        -0.62331         0.96170
   C       19.27938         0.73648         1.09559
   C       18.10738         1.34290         1.48720
   C       18.18476         2.75011         1.95447
   O       19.12384         3.50523         1.82450
   C       16.91178         3.00566         2.65872
   C       16.52341         4.10521         3.36522
   C       15.26748         4.09408         4.01344
   C       14.44443         2.93419         3.92690
   C       13.20221         2.92409         4.59258
   C       12.79402         4.01823         5.30256
   C       13.60683         5.16500         5.38536
   C       14.81834         5.20401         4.75433
   F       13.18195         6.22466         6.09282
   F       11.60956         4.01150         5.93325
   C       14.87147         1.81347         3.17655
   C       16.08080         1.85779         2.53852
   C       16.75654         0.88662         1.67887
   C       16.10580        -0.13456         1.02670
   C       16.67149        -0.94194         0.02947
   N       17.04304        -1.64389        -0.80333
   C       14.73994        -0.44824         1.16173
   N       13.64548        -0.79992         1.18599
   H       13.99437         4.85506        -3.48379
   H       11.64137         7.70625        -5.61447
   H        9.61347         6.98685        -4.37694
   H       12.96388         3.41197        -1.79740
   H        8.53737         5.52649        -2.69825
   H        7.46719         1.69783         0.72264
   H        7.97467        -4.17105         2.29000
   H        5.78083        -3.60212         3.23840
   H        4.92553        -1.30264         3.12650
   H        6.24266         0.47963         2.07099
   H        9.96714        -4.37735         1.27851
   H       12.12563        -2.47992         0.22271
   H       14.81026        -8.45948         0.31835
   H       12.75152        -9.78049         0.58836
   H       10.56150        -8.67201         0.68154
   H       10.37769        -6.23754         0.54421
   H       16.56150        -6.95439         0.26435
   H       16.73479        -3.93617        -0.24149
   H       18.61697        -2.86949        -0.13393
   H       21.68748        -6.84826         0.58269
   H       24.13820        -1.12680         0.79189
   H       25.99213        -2.95536         0.94072
   H       21.61663        -0.28836         0.55374
   H       18.81320        -1.34583         1.18662
   H       20.10526         1.43185         0.97270
   H       17.16362         4.97173         3.43211
   H       12.55974         2.05886         4.52701
   H       15.42991         6.08977         4.82712
   H       14.22817         0.94825         3.13097
*
