# ORCA input file
# SCF done       -209.318394646038          0.000554585096
! CAM-B3LYP def2-SVP def2/J RIJCOSX Grid4 TightSCF
%maxcore 5000
%tddft
    Mode sTDDFT
    Ethresh 5.0
    maxcore 5000
end

%pal
  nprocs 6
  end
* xyz 0 1
   C       -2.77491         2.72766         9.06235
   C       -3.89433         3.38194         8.54189
   O       -4.17832         4.59452         9.08571
   C       -5.26112         5.34361         8.57085
   C       -5.29541         6.67163         9.31084
   C       -4.61899         2.76958         7.53219
   C       -4.24462         1.52650         7.00699
   C       -3.13872         0.86814         7.56820
   C       -2.41990         1.48530         8.58621
   O       -2.71732        -0.37609         7.14227
   C       -3.54049        -1.46124         7.53898
   C       -3.46628        -1.73266         9.03802
   C       -5.01328         1.01495         5.88727
   C       -4.54216         0.20228         4.92249
   C       -5.28218        -0.24980         3.78036
   C       -6.62812        -0.25983         3.67712
   C       -7.39375        -0.66963         2.54517
   O       -8.73007        -0.76235         2.71121
   C       -9.29808        -1.13476         1.53957
   C       -8.31307        -1.28618         0.58610
   C       -7.09340        -0.99165         1.22426
   C       -5.77547        -1.01227         0.54501
   F       -4.94461        -1.96760         1.01501
   F       -5.89444        -1.24646        -0.77028
   F       -5.09885         0.14812         0.65702
   C      -10.71486        -1.30715         1.48749
   C      -11.39245        -1.57428         0.35430
   C      -12.81321        -1.78386         0.23678
   C      -13.40718        -1.76952        -1.05021
   O      -12.57071        -1.49349        -2.08531
   C      -13.03692        -1.55605        -3.41910
   C      -13.18469        -2.98762        -3.92569
   C      -14.76467        -2.00024        -1.17179
   C      -15.58398        -2.27756        -0.07009
   C      -14.99763        -2.25060         1.20921
   C      -13.64234        -2.00873         1.33508
   O      -15.72533        -2.47020         2.36261
   C      -16.55663        -1.38941         2.75844
   C      -15.75922        -0.17622         3.22549
   C      -16.96626        -2.60597        -0.33278
   C      -17.77504        -3.35516         0.44556
   C      -19.10858        -3.68200         0.06451
   C      -19.89304        -4.51424         0.78395
   C      -21.22235        -4.92329         0.47441
   O      -21.76757        -5.87423         1.26175
   C      -23.01766        -6.15149         0.82202
   C      -23.30134        -5.35904        -0.27096
   C      -22.15653        -4.57201        -0.49746
   C      -22.03998        -3.56544        -1.57950
   F      -21.72599        -2.33228        -1.13192
   F      -21.09426        -3.86999        -2.49527
   F      -23.18348        -3.43070        -2.26579
   C      -23.76792        -7.16010         1.49957
   C      -25.00662        -7.54540         1.13893
   C      -25.80322        -8.56952         1.77013
   C      -26.92464        -9.08458         1.09319
   O      -27.25722        -8.62909        -0.16827
   C      -26.52308        -9.21432        -1.23247
   C      -26.88869       -10.67470        -1.47592
   C      -27.72271       -10.03656         1.69773
   C      -27.45638       -10.52699         2.97502
   C      -26.32119       -10.01724         3.65453
   C      -25.52690        -9.06000         3.05100
   O      -26.09100       -10.52129         4.89566
   C      -24.97774       -10.06781         5.63856
   C      -24.97935       -10.81440         6.96370
   C      -28.27738       -11.52166         3.62455
   C      -29.33162       -12.16773         3.09636
   C      -30.08813       -13.15230         3.82132
   C      -31.12688       -13.81077         3.30921
   H       -2.21110         3.20981         9.84453
   H       -6.20386         4.79928         8.72395
   H       -5.12395         5.51362         7.49382
   H       -5.42530         6.49973        10.37571
   H       -6.11721         7.27936         8.94322
   H       -4.36065         7.20391         9.15814
   H       -5.47932         3.25708         7.09942
   H       -1.56472         0.96842         8.99385
   H       -3.15894        -2.31778         6.97779
   H       -4.58200        -1.27975         7.24229
   H       -2.43651        -1.91526         9.33519
   H       -4.06511        -2.60585         9.28229
   H       -3.84387        -0.87790         9.59593
   H       -6.01843         1.40989         5.80342
   H       -3.50809        -0.10872         4.96422
   H       -4.67980        -0.62807         2.96971
   H       -7.23832         0.04253         4.51723
   H       -8.43615        -1.57153        -0.43748
   H      -11.22000        -1.19100         2.43510
   H      -10.84970        -1.62438        -0.57791
   H      -12.26480        -1.03791        -3.99493
   H      -13.97582        -1.00037        -3.52916
   H      -12.23300        -3.50673        -3.84525
   H      -13.49321        -2.97615        -4.96734
   H      -13.92290        -3.53443        -3.34427
   H      -15.23401        -2.00295        -2.14336
   H      -13.22261        -2.02255         2.32814
   H      -17.15635        -1.78917         3.57992
   H      -17.22720        -1.10289         1.93758
   H      -15.09289        -0.45493         4.03814
   H      -16.43987         0.59494         3.57530
   H      -15.16383         0.22398         2.40715
   H      -17.34881        -2.26684        -1.28910
   H      -17.40884        -3.75753         1.37885
   H      -19.46482        -3.24206        -0.85371
   H      -19.50012        -4.96251         1.68725
   H      -24.20652        -5.33402        -0.84077
   H      -23.25028        -7.62448         2.32638
   H      -25.47504        -7.06666         0.29006
   H      -25.44376        -9.12944        -1.04122
   H      -26.77694        -8.60964        -2.10700
   H      -26.63379       -11.27977        -0.60815
   H      -26.34257       -11.04812        -2.33782
   H      -27.95498       -10.76683        -1.66652
   H      -28.58322       -10.39223         1.15448
   H      -24.68278        -8.64871         3.57924
   H      -25.05422        -8.98568         5.81368
   H      -24.04814       -10.27257         5.08933
   H      -25.90343       -10.61560         7.49957
   H      -24.13841       -10.49256         7.57105
   H      -24.90402       -11.88394         6.78733
   H      -27.98137       -11.75788         4.63754
   H      -29.65640       -11.97406         2.08362
   H      -29.77191       -13.34749         4.83817
   H      -31.46435       -13.63398         2.30098
   H      -31.67654       -14.54143         3.87668
*
