# ORCA input file
# SCF done       -202.973126454824          0.000650921548
! CAM-B3LYP def2-SVP def2/J RIJCOSX Grid4 TightSCF
%maxcore 5000
%tddft
    Mode sTDDFT
    Ethresh 5.0
    maxcore 5000
end

%pal
  nprocs 6
  end
* xyz 0 1
   C        2.50987       -14.54857         1.87135
   C        1.92288       -13.74780         0.97131
   C        1.32153       -14.12447        -0.27655
   C        0.79490       -13.09688        -0.97641
   C        0.92708       -11.82729        -0.34636
   S        1.77853       -11.99591         1.17609
   C        0.46402       -10.62226        -0.80485
   C       -0.31733       -10.37135        -1.96245
   C       -0.65551        -9.06943        -2.12417
   C       -0.16388        -8.19709        -1.11252
   S        0.77913        -9.11721         0.04665
   C       -0.35041        -6.84407        -1.10019
   C        0.15541        -5.86982        -0.21057
   S        0.54504        -4.32974        -0.96420
   C        1.36937        -3.78656         0.42363
   C        1.31735        -4.69402         1.45101
   C        0.55049        -5.86817         1.13363
   C        0.15461        -6.80321         2.12880
   S        0.84419        -6.78266         3.71342
   O       -0.41840        -6.00633         4.58107
   C       -0.53763        -6.26653         5.95721
   C        1.96897        -5.42022         3.67002
   C        2.02435        -4.52113         2.67674
   O        2.65575        -5.42964         4.84956
   C        3.63888        -4.43562         5.04185
   C       -0.83705        -7.78942         1.95679
   C       -1.20334        -8.70604         2.90556
   C       -2.19560        -9.67308         2.69250
   O       -2.49743       -10.54793         3.69702
   C       -2.99077        -9.98549         1.59481
   C       -3.29478        -9.63430         0.22585
   O       -2.91719        -8.72861        -0.48351
   N       -4.22467       -10.60660        -0.17215
   C       -4.56598       -11.52597         0.80945
   O       -5.33574       -12.44762         0.65723
   C       -3.77794       -11.10565         1.96497
   C       -3.45496       -11.42319         3.26878
   C       -3.95392       -12.44853         4.10690
   C       -3.48500       -12.69384         5.35596
   C       -3.92605       -13.69407         6.26889
   S       -3.63412       -13.35294         7.96083
   C       -4.52119       -14.71941         8.46118
   C       -5.00812       -15.44097         7.40091
   C       -4.63550       -14.88928         6.13238
   C       -4.91859       -15.57624         4.91212
   S       -6.18939       -16.75130         4.80131
   O       -7.62726       -15.90536         4.65253
   C       -8.47666       -16.22286         3.56409
   C       -6.39207       -17.22725         6.50009
   C       -5.80559       -16.61890         7.54112
   O       -7.17945       -18.33548         6.50166
   C       -7.46034       -18.94744         7.74241
   C       -4.22192       -15.37513         3.71763
   C       -4.68239       -15.73146         2.47204
   C       -4.05927       -15.29447         1.31065
   C       -4.58902       -15.42431         0.04049
   C       -4.07124       -14.82336        -1.15213
   C       -3.04313       -13.90860        -1.24087
   C       -2.57825       -13.35238        -2.44251
   N       -2.12918       -12.86321        -3.38245
   C       -2.35429       -13.35146        -0.15013
   N       -1.76112       -12.81571         0.67814
   C       -4.89318       -15.27300        -2.27348
   C       -5.95012       -16.06469        -1.76310
   C       -5.80915       -16.16673        -0.29153
   O       -6.57149       -16.75648         0.45775
   C       -6.91441       -16.61525        -2.56824
   C       -6.82815       -16.38101        -3.94653
   C       -5.76599       -15.59564        -4.44574
   C       -4.79188       -15.03162        -3.62877
   S       -5.84733       -15.43501        -6.17573
   C       -7.29011       -16.41325        -6.20097
   C       -7.69173       -16.83813        -4.98061
  Br       -8.13161       -16.78122        -7.83820
   H        2.57161       -15.60962         1.70461
   H        2.93179       -14.16269         2.78092
   H        1.30955       -15.15384        -0.59023
   H        0.30846       -13.19454        -1.93115
   H       -0.62612       -11.16230        -2.62214
   H       -1.26184        -8.69240        -2.92761
   H       -0.84670        -6.44274        -1.97595
   H        1.86423        -2.83580         0.41942
   H        0.35942        -5.95192         6.49892
   H       -0.72247        -7.32744         6.14787
   H       -1.39290        -5.68562         6.30229
   H        2.65163        -3.64535         2.75963
   H        4.38826        -4.46366         4.24554
   H        4.10883        -4.66633         5.99585
   H        3.19044        -3.43849         5.08647
   H       -1.40270        -7.76159         1.03703
   H       -0.69968        -8.75286         3.86127
   H       -4.61332       -10.62857        -1.10377
   H       -4.74534       -13.03600         3.66859
   H       -2.73838       -12.01550         5.75013
   H       -4.65384       -14.92308         9.50508
   H       -7.94209       -16.20850         2.61182
   H       -9.24619       -15.45182         3.55667
   H       -8.93859       -17.20275         3.70815
   H       -5.95698       -16.98557         8.54601
   H       -7.99050       -18.26237         8.41025
   H       -6.54299       -19.29452         8.22690
   H       -8.09702       -19.79909         7.51243
   H       -3.28222       -14.84375         3.78117
   H       -5.62255       -16.25495         2.37792
   H       -3.12930       -14.75478         1.42743
   H       -7.71357       -17.20915        -2.15276
   H       -4.00150       -14.43807        -4.05762
   H       -8.56053       -17.44843        -4.81351
*
