# ORCA input file
# SCF done       -187.117439279187          0.000924395647
! CAM-B3LYP def2-SVP def2/J RIJCOSX Grid4 TightSCF
%maxcore 5000
%tddft
    Mode sTDDFT
    Ethresh 5.0
    maxcore 5000
end

%pal
  nprocs 6
  end
* xyz 0 1
   C       -3.14261       -13.16782         0.15418
   C       -1.94690       -12.59649         0.35824
   C       -0.97488       -12.92281         1.36068
   C        0.14375       -12.16354         1.31725
   C        0.14408       -11.18392         0.28617
   S       -1.33372       -11.26378        -0.63541
   C        1.13949       -10.26370         0.01269
   C        2.37127       -10.09895         0.68563
   C        3.14395        -9.08812         0.19466
   C        2.56732        -8.39248        -0.88894
   S        1.00123        -9.09215        -1.27344
   C        2.96756        -7.30009        -1.63529
   C        4.08895        -6.46254        -1.58921
   C        4.07072        -5.31903        -2.46338
   C        5.09638        -4.31465        -2.45964
   N        5.10580        -3.36092        -3.39869
   C        4.11412        -3.28338        -4.25112
   C        3.00901        -4.18412        -4.15408
   N        3.03651        -5.18213        -3.29757
   C        1.88407        -4.04214        -5.00227
   N        0.98691        -3.91213        -5.70289
   C        4.18097        -2.32984        -5.29889
   N        4.22213        -1.59558        -6.17638
   C        6.15560        -4.34604        -1.52006
   C        6.25785        -5.52823        -0.75857
   C        5.25775        -6.56970        -0.78192
   N        5.60081        -7.56984         0.02344
   S        7.00980        -7.24861         0.73399
   N        7.26680        -5.80715         0.06167
   C        7.06789        -3.28415        -1.33761
   S        8.54102        -3.51023        -0.42393
   C        9.04787        -1.83968        -0.57905
   C        8.07811        -1.13685        -1.30779
   C        6.98999        -1.95085        -1.71866
   O        6.05724        -1.21648        -2.34462
   C        6.53930         0.05081        -2.36045
   N        5.72117         1.05264        -2.94052
   O        6.19457         2.17055        -2.99923
   O        4.61487         0.72815        -3.31162
   C        7.76302         0.17091        -1.75157
   C       10.22757        -1.33437        -0.01375
   S       10.65445         0.33466        -0.24151
   C       12.11509         0.14855         0.68317
   C       12.25860        -1.18537         1.12459
   C       11.20166        -2.01929         0.72507
   C       11.07859        -3.46168         0.97064
   C       11.89380        -4.36290         0.44556
   O       13.33081        -1.47660         1.87663
   C       13.39100        -2.64543         2.66370
   C       12.92799         1.26841         0.92117
   C       14.08332         1.28335         1.65568
   C       14.79394         2.47357         1.87477
   C       15.92652         2.57424         2.64636
   C       16.69548         3.77282         2.90100
   C       16.42377         5.04459         2.45927
   C       17.21630         6.17196         2.75674
   N       17.81674         7.12907         2.96264
   C       15.32383         5.42335         1.66298
   N       14.45961         5.81990         1.01846
   C       17.83257         3.40284         3.74016
   C       17.76067         2.01648         4.01678
   C       16.56524         1.44701         3.36094
   O       16.20308         0.28880         3.42424
   C       18.69211         1.36396         4.78624
   C       19.74938         2.11572         5.30942
   C       19.81378         3.50042         5.02814
   C       18.87052         4.16032         4.24975
   S       21.19967         4.23984         5.77223
   C       21.66604         2.69920         6.44171
   C       20.82988         1.68224         6.12576
  Br       23.21340         2.57760         7.49535
   H       -3.47965       -13.97561         0.77965
   H       -3.79722       -12.84270        -0.63364
   H       -1.15821       -13.71026         2.06958
   H        0.97366       -12.26851         1.99278
   H        2.65801       -10.72470         1.51156
   H        4.11341        -8.81939         0.57002
   H        2.25531        -6.98849        -2.39167
   H        8.32599         1.07463        -1.64457
   H       10.24222        -3.76794         1.58758
   H       12.70898        -4.08155        -0.20127
   H       11.76475        -5.41468         0.63123
   H       12.44156        -2.84305         3.16594
   H       14.16674        -2.44389         3.40258
   H       13.67184        -3.51708         2.06730
   H       12.57502         2.19987         0.49280
   H       14.45864         0.37376         2.09358
   H       14.41038         3.36702         1.39873
   H       18.60852         0.30575         4.97843
   H       18.96648         5.21694         4.06518
   H       20.96743         0.66813         6.45369
*
