# ORCA input file
# SCF done       -242.782003982308          0.000423577281
! CAM-B3LYP def2-SVP def2/J RIJCOSX Grid4 TightSCF
%maxcore 5000
%tddft
    Mode sTDDFT
    Ethresh 5.0
    maxcore 5000
end

%pal
  nprocs 6
  end
* xyz 0 1
   C        4.30267        15.71832        -3.55028
   C        5.62090        15.44244        -3.49264
   C        5.89224        14.07608        -3.18702
   C        7.14075        13.44796        -3.03404
   C        8.39810        14.16443        -3.13299
   C        9.55575        13.74155        -3.71976
   C       10.60854        14.67206        -3.58431
   C       10.28306        15.79840        -2.88711
   S        8.62606        15.72617        -2.39233
   C       11.13480        16.97200        -2.56724
  Cl       12.17308        14.39380        -4.24612
   C        7.12411        12.08150        -2.76271
   C        5.92576        11.33674        -2.61141
   C        4.67390        11.97083        -2.74199
   C        4.69778        13.32928        -3.04560
   S        3.29613        14.34585        -3.25235
   C        3.42140        11.26879        -2.55130
   C        2.25725        11.42524        -3.24853
   C        1.21264        10.61453        -2.75597
   C        1.55076         9.84737        -1.67934
   S        3.20919        10.11299        -1.26279
   C        0.71048         8.88759        -0.91936
  Cl       -0.35713        10.60887        -3.46389
   C        6.18850         9.97058        -2.35041
   C        7.52077         9.68776        -2.27056
   S        8.53270        11.08372        -2.52493
   C        8.14967         8.42396        -2.03938
   N        9.47068         8.40776        -1.99594
   N       10.16306         7.32673        -1.82059
   C        9.61274         6.13040        -1.67467
   C        8.19353         6.00891        -1.68445
   C        7.42906         7.20606        -1.87085
   N        6.12072         6.96914        -1.85887
   S        5.88296         5.39212        -1.63213
   N        7.42301         4.93624        -1.54154
   C       10.49996         5.02633        -1.52966
   C       10.21126         3.67953        -1.43514
   C       11.37459         2.91580        -1.34235
   C       12.54281         3.70330        -1.35955
   S       12.21811         5.37030        -1.49793
   C       13.66411         2.83651        -1.27408
   C       13.21015         1.51177        -1.21382
   C       11.75550         1.51655        -1.24860
   C       10.92549         0.43318        -1.20835
   C        9.52099         0.55537        -1.24662
   N        8.37755         0.63964        -1.27708
   C       11.41915        -0.88505        -1.12816
   N       11.81834        -1.95870        -1.06554
   C       14.25508         0.58364        -1.14445
   C       15.49268         1.18984        -1.14116
   S       15.36561         2.93984        -1.22621
   C       16.79546         0.57091        -1.09109
   C       17.92459         1.31870        -0.74176
   C       19.17124         0.73916        -0.69536
   C       19.34135        -0.60981        -1.01109
   C       18.22025        -1.35234        -1.38412
   C       16.96749        -0.78021        -1.41106
   C       20.67769        -1.21932        -1.00959
   C       21.00119        -2.02913        -2.19485
   C       21.63021        -3.26682        -2.07229
   C       21.91800        -4.02027        -3.19390
   C       21.58088        -3.55378        -4.45404
   C       20.94129        -2.33259        -4.58553
   C       20.64708        -1.57838        -3.46541
   C       21.55071        -1.03523         0.00930
   C       21.14692        -0.41227         1.28021
   C       19.95546        -0.77119         1.90843
   C       19.59177        -0.18892         3.10736
   C       20.41128         0.75741         3.70060
   C       21.60472         1.10988         3.09250
   C       21.97397         0.52601         1.89546
   C       22.95950        -1.43990        -0.07797
   C       23.72158        -1.15861        -1.21230
   C       25.05016        -1.51318        -1.27159
   C       25.67278        -2.16630        -0.20420
   C       24.91068        -2.43340         0.93722
   C       23.58353        -2.06934         0.99944
   C       27.06916        -2.53603        -0.28525
   C       27.79919        -3.29420         0.57425
   C       29.16531        -3.47523         0.21149
   C       29.46573        -2.81096        -1.01998
   S       28.04141        -1.98813        -1.62952
   C       30.71362        -2.85505        -1.62317
   O       31.13498        -2.27252        -2.77867
   C       30.26557        -1.48945        -3.55850
   C       31.70323        -3.60511        -0.96084
   C       31.41434        -4.24197         0.25559
   C       30.16987        -4.19452         0.87626
   O       30.10616        -4.89034         2.04770
   C       29.11335        -4.63881         3.01014
   S       32.80043        -5.08533         0.88107
   C       33.74102        -4.57871        -0.48371
   C       33.05489        -3.81775        -1.36054
   H        3.83551        16.65980        -3.76327
   H        6.38497        16.17657        -3.66683
   H        9.65692        12.81766        -4.25729
   H       12.18261        16.70693        -2.68797
   H       10.96261        17.30441        -1.54544
   H       10.90938        17.80398        -3.23583
   H        2.14701        12.06458        -4.10424
   H       -0.32905         8.99346        -1.21983
   H        0.79405         9.06823         0.15104
   H        1.02793         7.86263        -1.11313
   H        5.43742         9.21164        -2.23538
   H        9.20410         3.30360        -1.43999
   H       14.11686        -0.47989        -1.08093
   H       17.81167         2.36632        -0.50071
   H       20.03127         1.33462        -0.42779
   H       18.33974        -2.39443        -1.64433
   H       16.11627        -1.37584        -1.70241
   H       21.88235        -3.64030        -1.09061
   H       22.40567        -4.97787        -3.08490
   H       21.81030        -4.14272        -5.32964
   H       20.66926        -1.96683        -5.56507
   H       20.15211        -0.62302        -3.57023
   H       19.32139        -1.52079         1.45827
   H       18.66607        -0.47744         3.58342
   H       20.12376         1.21362         4.63625
   H       22.25088         1.84235         3.55397
   H       22.90378         0.80534         1.42010
   H       23.26607        -0.64441        -2.04536
   H       25.62629        -1.28338        -2.15647
   H       25.36265        -2.92022         1.78769
   H       23.01036        -2.28354         1.89048
   H       27.35412        -3.74170         1.44049
   H       30.86789        -1.14838        -4.40002
   H       29.89471        -0.62084        -3.00785
   H       29.42050        -2.07157        -3.93552
   H       29.51113        -5.03446         3.94538
   H       28.18363        -5.16767         2.77585
   H       28.92034        -3.56904         3.12608
   H       34.76563        -4.88953        -0.54212
   H       33.46265        -3.40846        -2.26589
*
