# ORCA input file
# SCF done       -194.444828369696          0.000380668785
! CAM-B3LYP def2-SVP def2/J RIJCOSX Grid4 TightSCF
%maxcore 5000
%tddft
    Mode sTDDFT
    Ethresh 5.0
    maxcore 5000
end

%pal
  nprocs 6
  end
* xyz 0 1
   C        3.73884         0.60093         0.64906
   C        4.13428         0.77636         1.90805
   C        4.18421        -0.25616         2.90357
   S        3.70805        -1.88455         2.53839
   C        4.02922        -2.41606         4.16889
   C        3.88726        -3.79186         4.51814
   S        4.62300        -4.41938         5.97344
   C        4.12709        -6.04252         5.59951
   C        4.44471        -7.13738         6.45296
   C        4.91635        -7.00494         7.71000
   C        5.27686        -8.03904         8.62673
   S        5.46228        -7.56191        10.29421
   C        5.94815        -9.17664        10.74318
   N        6.23844        -9.55032        12.05978
   C        7.27204        -8.78814        12.67985
   S        6.47623        -7.30260        13.42242
   C        5.02114        -8.33772        13.83800
   C        5.06074        -8.90541        15.19725
   S        5.07240        -8.27289        16.79191
   C        5.10070        -9.95545        17.37720
   C        5.10248       -10.21679        18.77750
   C        5.09580       -11.46949        19.27309
   C        5.07650       -11.84980        20.66536
   C        4.99847       -10.92454        21.70717
   C        4.97161       -11.32377        23.02817
   C        5.02260       -12.67176        23.33700
   C        5.10059       -13.61738        22.32854
   C        5.12831       -13.22599        20.99623
   O        5.20566       -14.09461        19.95272
   C        5.25805       -15.47500        20.21477
   N        5.10206       -10.84441        16.43181
   C        5.08747       -10.27241        15.21806
   C        5.01264       -10.87746        13.84853
   C        3.63590       -11.55894        13.70682
   C        3.40567       -12.25931        12.37274
   C        6.17121       -11.85629        13.60343
   C        6.12049       -13.09029        14.49799
   C        5.06573        -9.61049        12.92166
   C        5.95873       -10.00964         9.66101
   C        5.56047        -9.37924         8.45867
   C        5.56751       -10.10504         7.14710
   C        5.86550       -11.59981         7.29092
   C        6.90929       -11.91111         8.36450
   C        8.27372       -11.31475         8.04291
   F        8.68582       -11.65647         6.80831
   F        8.35043        -9.98180         8.10592
   F        9.21183       -11.77948         8.88982
   C        6.40857       -11.43634         9.72982
   C        3.42451        -6.07786         4.41005
   C        3.27311        -4.81419         3.81104
   C        2.49851        -4.62928         2.54547
   C        1.59222        -5.83477         2.25399
   O        0.49858        -5.94495         3.14413
   C       -0.52379        -5.00378         2.95506
   C        2.41010        -7.11974         2.38060
   C        2.82604        -7.32244         3.83435
   C        4.47495        -1.35429         4.93914
   C        4.57045        -0.14500         4.22128
   C        5.02826         1.13758         4.84679
   C        5.72686         0.88778         6.18035
   C        4.93317        -0.07943         7.05936
   C        3.54759         0.45592         7.40186
   F        3.58109         1.74194         7.79487
   F        2.65424         0.39301         6.40628
   F        3.00561        -0.23138         8.42371
   C        4.82203        -1.45390         6.39280
   H        3.71818         1.41351        -0.05487
   H        3.42227        -0.36417         0.28943
   H        4.44210         1.75700         2.24538
   H        4.25157        -8.11090         6.03336
   H        5.02059        -6.00088         8.10493
   H        8.02581        -8.46916        11.96373
   H        7.73229        -9.34732        13.49570
   H        4.14545        -7.71160        13.65862
   H        5.10331        -9.34293        19.41196
   H        5.10421       -12.28587        18.56590
   H        4.95333        -9.87296        21.47275
   H        4.90935       -10.58830        23.81561
   H        5.00118       -12.99614        24.36664
   H        5.13842       -14.66189        22.59517
   H        6.14382       -15.74158        20.80028
   H        5.31593       -15.95498        19.23888
   H        4.35909       -15.82193        20.73454
   H        2.86683       -10.79455        13.84954
   H        3.52941       -12.27697        14.52015
   H        3.56306       -11.57959        11.53786
   H        2.38174       -12.62334        12.32418
   H        4.07171       -13.10944        12.25536
   H        7.10984       -11.33615        13.79740
   H        6.17177       -12.14995        12.55440
   H        6.00703       -12.79424        15.53722
   H        7.04557       -13.65321        14.39392
   H        5.29554       -13.74453        14.23051
   H        4.18611        -9.61322        12.27377
   H        6.30623        -9.62987         6.49421
   H        4.59389       -10.00802         6.66275
   H        6.19174       -11.99644         6.32783
   H        4.95130       -12.12431         7.57644
   H        7.08289       -12.99324         8.39448
   H        7.19113       -11.53287        10.48527
   H        5.57404       -12.07685        10.02875
   H        3.18529        -4.50141         1.70326
   H        1.89574        -3.72087         2.60762
   H        1.20750        -5.73495         1.22370
   H       -1.34756        -5.31804         3.59384
   H       -0.86001        -4.98628         1.91034
   H       -0.21780        -3.99195         3.24423
   H        3.28905        -7.03999         1.73917
   H        1.81279        -7.97035         2.05121
   H        3.53392        -8.15169         3.90387
   H        1.93871        -7.58265         4.41782
   H        4.16447         1.79322         4.99309
   H        5.71622         1.65461         4.17438
   H        5.87544         1.83459         6.70228
   H        6.70639         0.44003         6.00187
   H        5.43689        -0.18905         8.02628
   H        4.07312        -2.05528         6.91546
   H        5.78038        -1.97051         6.50149
*
