# ORCA input file
# SCF done       -290.485436305578          0.000614526028
! CAM-B3LYP def2-SVP def2/J RIJCOSX Grid4 TightSCF
%maxcore 5000
%tddft
    Mode sTDDFT
    Ethresh 5.0
    maxcore 5000
end

%pal
  nprocs 6
  end
* xyz 0 1
   C        7.37445        14.30479         6.67550
   C        6.40635        13.78677         7.49360
   C        6.52444        12.55132         8.15874
   N        6.56872        11.53685         8.69431
   C        5.22511        14.48860         7.81813
   N        4.29102        15.06446         8.15454
   C        8.74394        13.81997         6.56191
   C        9.56164        14.89110         6.09406
   C       10.90986        14.74479         5.93831
   C       11.50728        13.49840         6.23410
   C       10.69139        12.41965         6.68278
   C        9.29884        12.60188         6.84547
   C       11.30000        11.17985         6.96491
   C       12.64969        11.01200         6.81626
   C       13.45270        12.07515         6.37710
   C       12.89370        13.29136         6.09255
   C        8.71729        16.07009         5.82063
   O        9.06428        17.17291         5.46634
   C        7.31795        15.58787         6.00302
   C        6.28917        16.25502         5.42116
   C        4.99553        15.77104         5.09123
   C        3.92739        16.53669         4.70239
   C        2.77473        15.79121         4.36903
   C        1.51105        16.26802         3.95810
   C        1.18802        17.67699         3.88758
   C        0.40738        18.31407         2.96325
   C        0.25849        19.69069         3.23255
   C        0.90067        20.12154         4.35803
   S        1.72843        18.80080         5.10782
   C        0.95318        21.48859         4.93404
  Cl       -0.66513        20.72773         2.21654
   C        0.56750        15.29991         3.62348
   C        0.80491        13.90795         3.72756
   C        2.04393        13.43243         4.20274
   C        3.01070        14.39527         4.46427
   S        4.62977        14.05876         4.99078
   C        2.26000        12.02458         4.45884
   C        1.37070        11.12928         4.98428
   C        1.92512         9.84218         5.14608
   C        3.22684         9.73318         4.75113
   S        3.79749        11.25902         4.16617
   C        4.11776         8.54699         4.80165
  Cl        1.02079         8.52615         5.79055
   C       -0.30881        13.15014         3.29331
   C       -1.36200        13.90983         2.88078
   S       -1.05165        15.62034         3.07264
   C       -2.64286        13.40978         2.46587
   S       -3.33003        12.18481         3.47323
   C       -4.79660        12.11460         2.56580
   C       -4.77285        13.05802         1.53576
   C       -3.51737        13.75870         1.43919
   C       -3.32279        14.63108         0.32736
   C       -1.99213        15.17696        -0.09800
   F       -1.73146        16.41679         0.36576
   F       -0.94570        14.41032         0.24459
   F       -1.92144        15.28873        -1.43927
   C       -4.39006        14.93458        -0.47659
   C       -5.66613        14.40010        -0.25941
   C       -5.87146        13.44829         0.70948
   O       -7.05728        12.86275         0.96991
   C       -8.19225        13.25469         0.23125
   C       -5.73206        11.10478         2.94486
   C       -6.52123        10.38934         2.11740
   C       -7.36599         9.33208         2.55944
   C       -8.05072         8.45029         1.76797
   C       -8.76865         7.46637         2.48588
   C       -9.52420         6.38926         1.98013
   C       -9.61704         6.09409         0.56456
   C      -10.69291         5.61244        -0.12526
   C      -10.40697         5.36796        -1.48562
   C       -9.12213         5.64165        -1.85370
   S       -8.23308         6.23085        -0.49074
   C       -8.48017         5.48799        -3.18363
  Cl      -11.59435         4.77304        -2.57982
   C      -10.16541         5.57769         2.91511
   C      -10.05899         5.78823         4.31542
   C       -9.26419         6.84230         4.82637
   C       -8.65480         7.66107         3.88953
   S       -7.61112         9.00510         4.26254
   C       -9.09055         7.02324         6.25224
   C       -8.87979         6.06563         7.20320
   C       -8.76150         6.60444         8.50251
   C       -8.88747         7.96244         8.56315
   S       -9.14398         8.60716         6.97758
   C       -8.83164         8.85005         9.75144
  Cl       -8.48166         5.61531         9.88428
   C      -10.81481         4.84927         5.03302
   C      -11.44276         3.90459         4.24275
   S      -11.13189         4.17889         2.54166
   C      -12.22747         2.87605         4.80779
   C      -12.86865         1.82305         4.22063
   C      -13.62858         0.79902         4.91936
   C      -13.94182         0.76350         6.25365
   C      -14.69394        -0.26445         6.86108
   N      -15.29677        -1.06516         7.42108
   C      -13.58711         1.73255         7.21543
   N      -13.35074         2.47408         8.06079
   C      -14.03280        -0.19848         3.93420
   C      -13.57854         0.21921         2.65063
   C      -12.86185         1.49638         2.78158
   O      -12.36564         2.14205         1.87835
   C      -13.80913        -0.51733         1.52477
   C      -14.51675        -1.73530         1.63290
   C      -14.97253        -2.16358         2.91307
   C      -14.72068        -1.37654         4.06051
   C      -15.67464        -3.38210         3.01062
   C      -15.91558        -4.14233         1.89856
   C      -15.46638        -3.71950         0.63867
   C      -14.78204        -2.54139         0.50859
   H       11.51553        15.56932         5.59253
   H        8.69926        11.76947         7.18005
   H       10.67770        10.36545         7.30592
   H       13.10654        10.05885         7.03699
   H       14.51621        11.92551         6.26536
   H       13.50727        14.11338         5.75380
   H        6.51356        17.26040         5.07882
   H        3.97614        17.60975         4.67422
   H       -0.02110        17.84267         2.09822
   H        0.33299        22.15772         4.34294
   H        1.97587        21.86509         4.93738
   H        0.59473        21.48579         5.96269
   H        0.37403        11.38114         5.29553
   H        3.52225         7.64223         4.89881
   H        4.78898         8.61369         5.65888
   H        4.72545         8.48461         3.90125
   H       -0.31002        12.07817         3.22280
   H       -4.25189        15.60383        -1.31173
   H       -6.46981        14.73018        -0.89528
   H       -8.40850        14.31847         0.36380
   H       -9.01495        12.66512         0.63218
   H       -8.07287        13.03568        -0.83412
   H       -5.70459        10.82540         3.99202
   H       -6.50859        10.56639         1.05281
   H       -8.03066         8.51032         0.69557
   H      -11.66649         5.46000         0.30074
   H       -7.76187         4.66779        -3.17010
   H       -7.94683         6.39574        -3.46128
   H       -9.23875         5.27473        -3.93272
   H       -8.76438         5.01922         6.98913
   H       -8.62637         8.25935        10.64057
   H       -9.77887         9.37191         9.88507
   H       -8.04997         9.59951         9.63368
   H      -10.92094         4.86027         6.10304
   H      -12.29494         2.95078         5.88672
   H      -13.45331        -0.17570         0.56406
   H      -15.07772        -1.73173         5.01388
   H      -16.01869        -3.70343         3.98279
   H      -16.45402        -5.07429         1.98385
   H      -15.66503        -4.33190        -0.22818
   H      -14.43332        -2.21060        -0.45882
*
