# ORCA input file
# SCF done       -179.021076107687          0.000939123104
! CAM-B3LYP def2-SVP def2/J RIJCOSX Grid4 TightSCF
%maxcore 5000
%tddft
    Mode sTDDFT
    Ethresh 5.0
    maxcore 5000
end

%pal
  nprocs 6
  end
* xyz 0 1
   C        6.21414         6.83944        -0.03828
   S        6.07449         5.19612         0.40173
   C        4.32931         5.31818         0.40480
   C        3.91658         6.58747         0.02967
   C        5.00469         7.45075        -0.22728
   C        4.85268         8.86018        -0.70463
   C        3.40269         9.34487        -0.61250
   C        3.07928         9.78794         0.81431
   C        2.43814         8.25411        -1.10223
   C        2.71066         7.85633        -2.55246
   C        2.50824         7.03124        -0.18317
   C        3.57810         4.14917         0.74115
   C        2.36970         4.16978         1.47896
   C        1.60892         2.97371         1.74557
   N        0.54973         3.02261         2.56634
   C        0.17971         4.16639         3.07890
   C        0.89101         5.37031         2.75643
   N        1.95855         5.33512         2.00030
   C        0.46800         6.62388         3.26558
   N        0.11236         7.63264         3.67539
   C       -0.89501         4.19180         4.00395
   N       -1.73449         4.23988         4.78095
   C        1.99836         1.71616         1.23270
   C        3.26201         1.67484         0.61548
   C        4.04248         2.86443         0.38502
   N        5.18883         2.57788        -0.23666
   S        5.28383         1.00145        -0.48396
   N        3.87318         0.57948         0.16272
   C        1.19241         0.55158         1.33379
   S        1.86584        -1.03437         1.05232
   C        0.34675        -1.85883         1.31242
   C       -0.65018        -0.92118         1.58260
   C       -0.16257         0.41573         1.58892
   O       -1.16879         1.28399         1.78306
   C       -2.28476         0.52588         1.92263
   N       -3.51608         1.20785         2.10994
   O       -4.49494         0.51245         2.29277
   O       -3.49913         2.41695         2.06001
   C       -2.04492        -0.81935         1.81712
   C        0.24061        -3.25935         1.20215
   S       -1.27638        -4.08674         1.40469
   C       -0.54522        -5.63750         1.09495
   C        0.82598        -5.48498         0.85301
   C        1.25546        -4.15460         0.91520
   C        1.73672        -6.51688         0.55437
   N        2.54392        -7.28966         0.29884
   C       -1.36457        -6.78679         1.10370
   C       -0.95844        -8.07034         0.89378
   C       -1.89495        -9.12841         0.89497
   C       -1.59159       -10.44572         0.69634
   C       -2.52271       -11.55856         0.65114
   C       -3.88443       -11.50286         0.80620
   C       -4.73546       -12.62694         0.74605
   N       -5.48206       -13.49808         0.70957
   C       -4.63943       -10.33537         1.04462
   N       -5.32664        -9.43535         1.23637
   C       -1.75218       -12.77158         0.39955
   C       -0.38098       -12.43144         0.29773
   C       -0.21866       -10.97643         0.48235
   O        0.82345       -10.36064         0.46690
   C        0.60060       -13.36239         0.05969
   C        0.21097       -14.69728        -0.08815
   C       -1.16164       -15.02977         0.01432
   C       -2.15328       -14.08789         0.25718
   S       -1.42381       -16.73367        -0.20244
   C        0.28901       -16.97269        -0.42568
   C        1.02194       -15.83677        -0.34157
  Br        0.94737       -18.69825        -0.74873
   H        7.18710         7.27726        -0.14933
   H        5.19863         8.91560        -1.74084
   H        5.50011         9.51700        -0.11889
   H        3.28935        10.21386        -1.27025
   H        3.34889         9.01980         1.53429
   H        2.01891        10.00479         0.92022
   H        3.63584        10.68984         1.05995
   H        1.42077         8.65682        -1.04803
   H        3.64848         7.31359        -2.64118
   H        2.75593         8.73684        -3.18950
   H        1.91348         7.21322        -2.91973
   H        1.91912         6.21225        -0.60370
   H        2.06334         7.28349         0.78093
   H       -2.77582        -1.59778         1.89110
   H        2.27338        -3.84665         0.75280
   H       -2.41602        -6.60189         1.29342
   H        0.08047        -8.30312         0.71586
   H       -2.92890        -8.85094         1.05661
   H        1.63572       -13.06740        -0.01149
   H       -3.18353       -14.39399         0.32642
   H        2.09018       -15.80167        -0.45374
*
