# ORCA input file
# SCF done       -152.384850512824          0.000918142747
! CAM-B3LYP def2-SVP def2/J RIJCOSX Grid4 TightSCF
%maxcore 5000
%tddft
    Mode sTDDFT
    Ethresh 5.0
    maxcore 5000
end

%pal
  nprocs 6
  end
* xyz 0 1
   C        1.77666        -4.50534        -1.94442
   S        1.49367        -2.79944        -2.05624
   C       -0.18929        -3.05506        -1.89019
   C       -0.49904        -4.40255        -1.75574
   C        0.63372        -5.23250        -1.78740
   C       -1.95856        -4.50473        -1.61883
   O       -2.65053        -5.48355        -1.47922
   C       -2.44911        -3.06575        -1.69072
   C       -1.36702        -2.24336        -1.85172
   C       -3.83013        -2.78328        -1.59259
   C       -4.37649        -1.53806        -1.64534
   C       -5.75465        -1.24605        -1.54974
   S       -6.26768         0.43550        -1.65259
   C       -7.90190        -0.02198        -1.47151
   C       -8.04511        -1.40575        -1.33727
   C       -6.84365        -2.09730        -1.38025
   C       -9.49089        -1.67696        -1.18742
   O      -10.05569        -2.73249        -1.04265
   C      -10.14215        -0.31138        -1.25445
   C       -9.16348         0.63412        -1.42125
   C      -11.55018        -0.17500        -1.15262
   C      -12.21502         1.00453        -1.19307
   C      -13.62957         1.16290        -1.09808
   C      -14.25981         2.34901        -1.07946
   C      -15.73939         2.19930        -0.93689
   C      -15.98546         0.69872        -1.22099
   C      -14.61568         0.03230        -0.97946
   C      -17.13256         0.27354        -0.28973
   C      -17.02613         1.22362         0.92019
   C      -16.35234         0.37052         1.96522
   C      -16.34236        -0.90602         1.62068
   C      -17.00663        -1.14092         0.29538
   C      -16.24310         2.42232         0.47141
   C      -16.04579         3.50026         1.24643
   C      -15.30339         4.66490         0.88477
   C      -14.95368         5.62606         1.76952
   C      -14.11701         6.73522         1.47068
   S      -13.67488         7.84317         2.76102
   C      -12.65030         8.71556         1.70391
   C      -12.66555         8.18187         0.41446
   C      -13.49112         7.07275         0.27819
   C      -11.72314         8.97520        -0.39688
   O      -11.43515         8.85553        -1.56269
   C      -11.16011         9.99759         0.56869
   C      -11.74994         9.81218         1.79624
   C      -10.15990        10.89582         0.14146
   C       -9.54039        11.81851         0.92912
   C       -8.49301        12.66598         0.50775
   S       -7.79337        13.79458         1.66243
   C       -6.68026        14.34844         0.49168
   C       -6.84390        13.69606        -0.72993
   C       -7.85906        12.75233        -0.73002
   C       -5.82387        14.24658        -1.65450
   O       -5.61473        13.95898        -2.80656
   C       -5.07848        15.26838        -0.82908
   C       -5.61420        15.29761         0.42579
   C       -3.99748        16.01572        -1.40199
   C       -3.26858        16.93920        -0.77297
   H        2.78585        -4.86161        -2.00321
   H        0.61113        -6.30325        -1.70001
   H       -1.37038        -1.17257        -1.93728
   H       -4.46483        -3.65012        -1.46761
   H       -3.72303        -0.68530        -1.77219
   H       -6.74938        -3.16383        -1.29415
   H       -9.29920         1.69655        -1.50519
   H      -12.09194        -1.10354        -1.03073
   H      -11.65159         1.92193        -1.30387
   H      -13.76733         3.30313        -1.13809
   H      -16.28606         2.85686        -1.62207
   H      -16.26726         0.54729        -2.26576
   H      -14.41553        -0.75864        -1.70206
   H      -14.54620        -0.39140         0.02393
   H      -18.08010         0.40421        -0.81604
   H      -18.00509         1.54007         1.30050
   H      -15.95835         0.79984         2.86928
   H      -15.94005        -1.71806         2.20222
   H      -17.99432        -1.58367         0.45257
   H      -16.44407        -1.81615        -0.34876
   H      -16.45570         3.48990         2.24955
   H      -14.99661         4.75752        -0.14463
   H      -15.27685         5.54012         2.79906
   H      -13.62546         6.52809        -0.63777
   H      -11.56690        10.37784         2.69128
   H       -9.87399        10.79418        -0.89711
   H       -9.84417        11.91711         1.96282
   H       -8.13101        12.14853        -1.57547
   H       -5.30338        15.91908         1.24536
   H       -3.79215        15.77178        -2.43691
   H       -3.44527        17.20342         0.25592
   H       -2.46865        17.45778        -1.27164
*
