# ORCA input file
# SCF done       -161.584392183960          0.000998802363
! CAM-B3LYP def2-SVP def2/J RIJCOSX Grid4 TightSCF
%maxcore 5000
%tddft
    Mode sTDDFT
    Ethresh 5.0
    maxcore 5000
end

%pal
  nprocs 6
  end
* xyz 0 1
   N       -1.17732       -11.56834        -6.24902
   C       -0.31576       -10.84884        -6.00777
   C        0.72230        -9.97353        -5.68518
   S        1.87902        -9.49086        -6.87055
   C        2.69338        -8.53842        -5.67975
   C        3.91774        -7.78079        -6.04828
   F        3.66728        -6.68531        -6.78167
   F        4.60966        -7.37288        -4.97531
   F        4.77986        -8.52328        -6.77600
   C        2.10501        -8.57943        -4.45207
   C        0.95528        -9.41030        -4.43382
   C        0.10781        -9.67370        -3.30630
   C        0.27127        -9.09013        -2.10202
   C       -0.58090        -9.28932        -0.96284
   S       -2.13237       -10.05571        -1.35454
   C       -2.51897       -10.88356         0.14780
   C       -3.18736       -12.06582         0.21047
   S       -3.45995       -12.56136         1.83410
   C       -2.64164       -11.17333         2.43647
   C       -2.20481       -10.36920         1.43142
   S       -1.36985        -8.84249         1.67570
   C       -0.24857        -8.83896         0.28740
   C        1.03870        -8.29079         0.56822
   C        1.43619        -7.65372         1.69109
   C        2.75798        -7.11699         1.74536
   N        3.32474        -6.50248         2.83490
   C        4.59265        -6.09322         2.55758
   C        4.87014        -6.44444         1.25258
   C        3.71240        -7.08449         0.74928
   S        4.02438        -7.52845        -0.93325
   O        4.05202        -8.96055        -1.11531
   O        3.16554        -6.82581        -1.85506
   C        5.70929        -6.85779        -0.88870
   C        6.48307        -7.04417        -2.06734
   C        7.82192        -6.97297        -2.16005
   C        8.53295        -7.24119        -3.39606
   C        9.59406        -6.47058        -3.81695
   C       10.18817        -5.33746        -3.06083
   F        9.28740        -4.37999        -2.76412
   F       10.70117        -5.72555        -1.87362
   F       11.18154        -4.73601        -3.72233
   S       10.16510        -6.85463        -5.39437
   C        8.97792        -8.11483        -5.50703
   C        8.89700        -8.92227        -6.64182
   N        8.81385        -9.59654        -7.56789
   C        8.18998        -8.23400        -4.37131
   C        7.19742        -9.26710        -4.24157
   C        6.85760        -9.84916        -3.06987
   C        5.80198       -10.77067        -2.87933
   S        5.47622       -11.40561        -1.28349
   C        4.03598       -12.18600        -1.74977
   C        3.78544       -11.99418        -3.08820
   C        2.86293       -12.28610        -4.13148
   N        3.26654       -11.75966        -5.25548
   N        4.42443       -11.10513        -5.02754
   C        4.79755       -11.20857        -3.72778
   C        5.96622        -6.34155         0.32753
   H        2.48633        -8.04040        -3.60152
   H       -0.69377       -10.38002        -3.47794
   H        1.08041        -8.38749        -1.98327
   H       -3.54836       -12.65711        -0.60592
   H       -2.54729       -11.01437         3.49099
   H        1.78282        -8.40421        -0.20397
   H        0.78377        -7.51748         2.54098
   H        2.85721        -6.37320         3.71840
   H        5.19477        -5.59387         3.28982
   H        5.89960        -7.31999        -2.93396
   H        8.41497        -6.66122        -1.31138
   H        6.76068        -9.60780        -5.16929
   H        7.39631        -9.57967        -2.17178
   H        3.46173       -12.73314        -1.02993
   H        1.95035       -12.84537        -4.08869
   H        4.92065       -10.70183        -5.80449
   H        6.89690        -5.87171         0.60327
*
