# ORCA input file
# SCF done       -146.879009591606          0.000596114739
! CAM-B3LYP def2-SVP def2/J RIJCOSX Grid4 TightSCF
%maxcore 5000
%tddft
    Mode sTDDFT
    Ethresh 5.0
    maxcore 5000
end

%pal
  nprocs 6
  end
* xyz 0 1
   C       -2.91693        -0.24952        -0.90856
   C       -1.81653         0.48621        -0.77134
   C       -0.57047         0.19596        -1.46153
   C        0.59617         0.82659        -1.14588
   C        0.78897         1.62463         0.02532
   C        1.66380         2.64753         0.20213
   C        1.62810         3.10161         1.57006
   C        0.78319         2.33783         2.31066
   C        0.44137         2.46194         3.70934
   C       -0.62304         1.73657         4.26272
   C       -0.94187         1.87136         5.59550
   C       -0.22926         2.73701         6.42005
   C       -0.71834         2.98052         7.79733
   O       -0.87842         4.09423         8.25174
   C       -1.10992         1.75339         8.53354
   C       -2.28862         1.63298         9.20723
   S       -2.46694         0.09871         9.95099
   C       -0.90119        -0.37153         9.41619
   C       -0.29349         0.58764         8.66541
   C        1.08910         0.45147         8.12326
   O        1.32675         0.48691         6.93542
   C        2.14852         0.23838         9.13832
   C        1.93799         0.46279        10.49728
   C        2.97194         0.28545        11.39647
   C        4.22417        -0.10948        10.95409
   C        4.44420        -0.32532         9.60255
   C        3.41425        -0.14910         8.69973
   C        0.85407         3.45920         5.89068
   C        1.68363         4.28438         6.74019
   C        2.32024         5.44413         6.45208
   C        3.10790         5.87788         7.58040
   C        3.01062         4.98117         8.60110
   C        3.67424         5.03787         9.85303
   C        3.64693         4.06558        10.79423
   C        4.32556         4.09879        12.06130
   C        4.95763         5.18512        12.55081
   S        5.80235         5.33011        14.06883
   C        5.57312         3.68429        14.64687
   C        6.06066         3.20427        15.81874
   S        5.64588         1.55311        16.05719
   C        4.80284         1.51185        14.55656
   C        4.84080         2.70829        13.90944
   O        4.23354         2.88689        12.70774
   C        2.05836         3.90846         8.14212
   O        1.67327         2.94786         8.76333
   C        1.17193         3.30802         4.54567
   C        0.22956         1.29168         1.38856
   O       -0.41835         0.31435         1.66764
   S        2.06770         0.74197        -2.16191
   C        1.59972        -0.55651        -3.24506
   C        2.41536        -1.15359        -4.15089
   S        1.60170        -2.39207        -5.02804
   C        0.14542        -2.10398        -4.16146
   C        0.28579        -1.10321        -3.24826
   O       -0.75082        -0.69311        -2.47726
   H       -3.83153         0.01862        -0.41071
   H       -2.92995        -1.14012        -1.51241
   H       -1.81950         1.37310        -0.15823
   H        2.27958         3.09224        -0.55918
   H        2.19519         3.94860         1.91106
   H       -1.19254         1.06416         3.64226
   H       -1.77341         1.31618         6.00548
   H       -3.07210         2.36139         9.27569
   H       -0.52280        -1.34157         9.67253
   H        0.97601         0.80146        10.84879
   H        2.79974         0.47127        12.44562
   H        5.03098        -0.24093        11.66032
   H        5.42105        -0.62788         9.25499
   H        3.56523        -0.30680         7.64187
   H        2.24536         5.99836         5.53321
   H        3.69025         6.78229         7.58739
   H        4.25906         5.93534        10.01516
   H        3.09508         3.15551        10.60849
   H        4.97154         6.10475        11.99627
   H        6.63794         3.73063        16.55057
   H        4.32668         0.61006        14.23342
   H        2.03053         3.83516         4.15968
   H        3.44256        -0.93166        -4.35365
   H       -0.73457        -2.67809        -4.36446
*
