# ORCA input file
# SCF done       -212.877229103916          0.000576046930
! CAM-B3LYP def2-SVP def2/J RIJCOSX Grid4 TightSCF
%maxcore 5000
%tddft
    Mode sTDDFT
    Ethresh 5.0
    maxcore 5000
end

%pal
  nprocs 6
  end
* xyz 0 1
   C        0.30017        -1.56267        -5.96013
   C       -0.76963        -0.83505        -6.40600
   C       -0.67520         0.57822        -6.15182
   C       -1.59198         1.52932        -6.49784
   C       -2.80798         1.25656        -7.16257
   N       -3.81532         1.11032        -7.68833
   C       -1.37910         2.89509        -6.20066
   N       -1.21501         4.00312        -5.96029
   S        0.81685         0.97402        -5.32182
   C        1.32963        -0.74613        -5.28044
   O        2.36044        -1.10422        -4.79116
   C       -1.89758        -1.44774        -6.98963
   N       -2.79917        -2.02749        -7.39386
   C        0.52813        -2.96518        -6.14743
   C        0.46940        -3.69408        -7.32116
   N        0.17510        -3.22419        -8.62499
   O        0.03126        -2.02479        -8.78247
   O        0.11427        -4.05123        -9.50917
   C        0.92201        -5.03812        -7.07089
   C        1.32119        -5.12600        -5.77814
   C        1.09082        -3.85908        -5.13378
   C        1.23891        -3.54557        -3.79933
   C        0.45024        -2.61522        -3.05888
   C        0.74884        -2.74860        -1.73817
   C        1.78706        -3.72668        -1.57954
   N        2.28554        -4.00644        -0.29088
   O        2.97672        -4.99859        -0.11746
   O        1.97286        -3.23929         0.59900
   C        2.14717        -4.22002        -2.83858
   C        3.23318        -4.96917        -3.32333
   C        4.15135        -5.69925        -2.61081
   C        5.19258        -6.39262        -3.25179
   N        6.11376        -7.16111        -2.59101
   C        6.17030        -7.39980        -1.16575
   C        5.14691        -8.44102        -0.72271
   C        7.02411        -7.77948        -3.47058
   O        7.90857        -8.52544        -3.12572
   C        6.61123        -7.30768        -4.78368
   C        5.49848        -6.47027        -4.62796
   C        5.10115        -6.03350        -5.95209
   O        4.20020        -5.31536        -6.33299
   N        6.01688        -6.65908        -6.82939
   C        5.94419        -6.38644        -8.24672
   C        7.03279        -5.41338        -8.69154
   C        6.93129        -7.41053        -6.14337
   C        8.02216        -8.19843        -6.59913
   C        8.40240        -8.47716        -7.86560
   C        9.50511        -9.35179        -8.17227
   C        9.44327       -10.27348        -9.23807
   C        8.28084       -10.39859       -10.14464
   O        7.26257        -9.77112       -10.11982
   S        8.60369       -11.68052       -11.35101
   C       10.22619       -12.04491       -10.67923
   O       10.96829       -12.84966       -11.15349
   C       10.46540       -11.17950        -9.50390
   C       11.65096       -11.24121        -8.75113
   C       11.73704       -10.28068        -7.73340
   C       10.71385        -9.37989        -7.45621
   C       11.21447        -8.46872        -6.38911
   O       10.74060        -7.47337        -5.94297
   O       12.44120        -8.94546        -5.99960
   C       12.81716       -10.03694        -6.73543
   O       13.82926       -10.63049        -6.53873
   C       12.66297       -12.24337        -9.00080
   C       13.98233       -11.98308        -9.05592
   C       14.99364       -12.97708        -9.24182
   C       16.31952       -12.69652        -9.46276
   C       17.16594       -13.85573        -9.58951
   C       18.51510       -13.85855        -9.81045
   C       19.30212       -12.69482        -9.95206
   N       19.99853       -11.79379       -10.07899
   C       19.23712       -15.06999        -9.91488
   N       19.82945       -16.04658       -10.00150
   S       16.24556       -15.33341        -9.42223
   C       14.70984       -14.42397        -9.16777
   O       13.67114       -14.97691        -8.96230
   C       16.79788       -11.37601        -9.57552
   N       17.11040       -10.27753        -9.67029
   H        0.93446        -5.80433        -7.82174
   H        1.64123        -6.01534        -5.27282
   H       -0.33278        -2.00687        -3.46955
   H        0.29984        -2.23064        -0.91102
   H        3.35330        -4.93671        -4.39792
   H        4.07337        -5.77216        -1.53708
   H        6.01657        -6.45906        -0.63268
   H        7.18002        -7.76526        -0.96098
   H        4.13283        -8.09779        -0.91119
   H        5.25589        -8.62289         0.34214
   H        5.30799        -9.37639        -1.25342
   H        4.96255        -5.93220        -8.41135
   H        5.98535        -7.32457        -8.80492
   H        6.89076        -4.45119        -8.20571
   H        6.97509        -5.26893        -9.76647
   H        8.02367        -5.78250        -8.43728
   H        8.56344        -8.64725        -5.77625
   H        7.83620        -8.13341        -8.71576
   H       12.30160       -13.24743        -9.18181
   H       14.34629       -10.96605        -8.98448
*
