# ORCA input file
# SCF done       -165.016058786019          0.000242333885
! CAM-B3LYP def2-SVP def2/J RIJCOSX Grid4 TightSCF
%maxcore 5000
%tddft
    Mode sTDDFT
    Ethresh 5.0
    maxcore 5000
end

%pal
  nprocs 6
  end
* xyz 0 1
   C        4.12435         3.16725        -5.95592
   C        4.33066         4.54044        -5.42533
   N        3.19819         2.93566        -6.85732
   N        2.94338         1.84345        -7.42823
   C        3.85593         0.69901        -7.39397
   C        4.69606         0.77806        -6.16640
   C        4.83071         2.02941        -5.46561
   N        5.62385         1.82110        -4.44222
   O        5.97084         0.51436        -4.49422
   N        5.40205        -0.11380        -5.54621
   C        4.74052         0.70863        -8.65488
   C        2.92496        -0.48596        -7.38702
   C        3.26813        -1.80498        -7.36578
   C        2.27560        -2.90417        -7.32672
   C        0.88656        -2.65477        -7.33137
   C        0.38557        -1.40351        -7.36473
   S        1.29885         0.06972        -7.39266
   N        2.82920        -4.09643        -7.29163
   C        4.17555        -3.89075        -7.30471
   C        4.49991        -2.50456        -7.35093
   S        6.18608        -2.24344        -7.38373
   C        6.47955        -3.98812        -7.34007
   C        5.29107        -4.71599        -7.29465
   C        7.80160        -4.44127        -7.35638
   C        8.18728        -5.76675        -7.33341
   C        9.52182        -6.14141        -7.37040
   C        9.98786        -7.45203        -7.39050
   C        9.28588        -8.66470        -7.36218
   C       10.08729        -9.78020        -7.45044
   C       11.45004        -9.48909        -7.54891
   S       11.71113        -7.76833        -7.51361
   C       12.52506       -10.37391        -7.72876
   C       12.51279       -11.73773        -8.01468
   C       13.76706       -12.25224        -8.27409
   C       14.79685       -11.30901        -8.21659
   S       14.15508        -9.76560        -7.73815
   C       16.16549       -11.57571        -8.38965
   C       17.20986       -10.68595        -8.48062
   C       17.17146        -9.29912        -8.75746
   C       18.19790        -8.34164        -8.30222
   C       19.42994        -8.76227        -7.74561
   C       19.78699       -10.06083        -7.70741
   S       18.80232       -11.40361        -8.15731
   N       17.88075        -7.08619        -8.54572
   C       16.70357        -7.12181        -9.22494
   C       16.27046        -8.49571        -9.42095
   S       14.86736        -8.58348       -10.40543
   C       14.72409        -6.80111       -10.38996
   C       15.83245        -6.19924        -9.72850
   C       13.60570        -6.24908       -10.91949
   C       13.22424        -4.85815       -10.76806
   C       11.76294        -4.49235       -10.59667
   C       10.70281        -5.56494       -10.68314
   N       12.49468        -4.18983       -11.83921
   N       12.87255        -2.93830       -12.19022
   C       12.57765        -1.89352       -11.51070
   C       11.85025        -2.01833       -10.26242
   C       11.45363        -3.31783        -9.79714
   N       10.77222        -3.16126        -8.69820
   O       10.74598        -1.82820        -8.46437
   N       11.39249        -1.13923        -9.41387
   C       12.96439        -0.54992       -12.01182
   H        3.64421         5.22664        -5.91283
   H        5.35636         4.86298        -5.60436
   H        4.16596         4.55526        -4.34849
   H        5.34413         1.61438        -8.66190
   H        4.10185         0.70475        -9.53482
   H        5.39752        -0.15570        -8.67057
   H        0.22812        -3.51034        -7.30574
   H       -0.67596        -1.21701        -7.36917
   H        5.24797        -5.78784        -7.25502
   H        8.57876        -3.68976        -7.39840
   H        7.42784        -6.53319        -7.29338
   H       10.25923        -5.35055        -7.41352
   H        8.21503        -8.70761        -7.28098
   H        9.71707       -10.78951        -7.44362
   H       11.60624       -12.31379        -8.05677
   H       13.95285       -13.27901        -8.53490
   H       16.43200       -12.62593        -8.35349
   H       20.11918        -7.99883        -7.41958
   H       20.75994       -10.37970        -7.36921
   H       15.96044        -5.13551        -9.66046
   H       12.90650        -6.89040       -11.43215
   H       13.93549        -4.23266       -10.23120
   H       10.72034        -6.01686       -11.67122
   H        9.72196        -5.12631       -10.51406
   H       10.87068        -6.33155        -9.93040
   H       13.51928        -0.64954       -12.93943
   H       13.57043        -0.04099       -11.26420
   H       12.07187         0.05180       -12.17533
*
