# ORCA input file
# SCF done       -220.553038304772          0.000939236159
! CAM-B3LYP def2-SVP def2/J RIJCOSX Grid4 TightSCF
%maxcore 5000
%tddft
    Mode sTDDFT
    Ethresh 5.0
    maxcore 5000
end

%pal
  nprocs 6
  end
* xyz 0 1
   C       -4.82182        -5.19200         3.98444
   C       -5.51113        -5.96296         4.91861
   C       -6.77472        -5.47143         5.56642
   O       -7.09198        -5.81280         6.66975
   O       -7.52907        -4.62908         4.85317
   C       -5.00369        -7.20617         5.33147
   C       -5.69717        -8.02792         6.25691
   N       -6.18220        -8.78753         6.96302
   C       -3.79622        -7.68528         4.81415
   C       -3.12894        -6.90821         3.89333
   C       -3.63186        -5.66957         3.45824
   C       -2.70506        -5.10130         2.47645
   C       -2.92852        -3.95088         1.76475
   C       -4.10879        -3.18681         1.87757
   N       -5.06701        -2.55649         1.92677
   C       -2.05820        -3.38950         0.80592
   N       -1.40690        -2.87025         0.01603
   C       -1.57587        -6.00354         2.37676
   C       -1.83078        -7.16216         3.23357
   O       -1.12776        -8.14433         3.39053
   C       -0.44807        -5.80502         1.61367
   C        0.68869        -6.60345         1.45226
   C        1.76007        -6.20792         0.63554
   C        2.78531        -7.12946         0.62306
   C        2.50249        -8.25563         1.43848
   S        0.98824        -8.17239         2.20819
   C        3.60991        -9.12879         1.37147
   C        4.58970        -8.57444         0.52538
   C        4.10115        -7.29873         0.02413
   C        4.74312        -6.44306        -0.82021
   C        6.02765        -6.72167        -1.33506
   N        7.07080        -6.94643        -1.75328
   C        4.16696        -5.22223        -1.23338
   N        3.70324        -4.23007        -1.57087
   C        5.72913        -9.36846         0.41597
   C        5.62585       -10.52416         1.17584
   S        4.09497       -10.62950         2.02728
   C        6.59594       -11.54693         1.33505
   C        7.85949       -11.61838         0.77102
   C        8.55077       -12.75521         1.18755
   C        7.80583       -13.55566         2.07147
   S        6.25825       -12.91498         2.38607
   C        8.59876       -14.66236         2.46086
   C        9.84968       -14.56522         1.82743
   C        9.85790       -13.36974         0.99673
   C       10.87198       -12.91732         0.20715
   C       12.10471       -13.59646         0.09299
   N       13.10862       -14.13997        -0.00708
   C       10.75527       -11.73498        -0.55592
   N       10.65812       -10.77596        -1.17593
   C       10.71836       -15.59988         2.17774
   C       10.13235       -16.47875         3.07161
   S        8.48435       -16.02767         3.47666
   C       10.70670       -17.62526         3.68669
   C       12.00853       -18.08496         3.59945
   F       12.94506       -17.48860         2.85665
   C       12.25286       -19.22400         4.37731
   C       11.11198       -19.64939         5.06706
   S        9.75116       -18.63997         4.74772
   C       11.36566       -20.77242         5.85903
   C       12.70295       -21.18141         5.77011
   S       13.65505       -20.20165         4.69333
   C       12.97821       -22.27690         6.59527
   F       14.14806       -22.90753         6.60221
   C       11.87575       -22.71856         7.30832
   S       10.45022       -21.77551         6.91621
   C       11.78074       -23.80102         8.22418
   C       12.75900       -24.15836         9.09922
   C       12.77690       -25.33279         9.95232
   C       11.99727       -26.44855         9.80130
   C       12.07149       -27.58357        10.63611
   N       12.08464       -28.52722        11.28894
   C       11.04055       -26.62103         8.77820
   N       10.26008       -26.82858         7.96253
   C       13.83150       -25.14643        10.93857
   C       14.48930       -23.91786        10.67998
   C       13.86634       -23.25412         9.52057
   O       14.12786       -22.15569         9.08618
   C       15.53329       -23.46088        11.44753
   C       15.95172       -24.25581        12.51935
   C       15.28686       -25.48081        12.77236
   C       14.22977       -25.94143        11.99800
   S       15.95735       -26.29867        14.15001
   C       17.10678       -25.00496        14.36428
   C       16.99582       -24.00991        13.45164
  Br       18.34071       -25.08807        15.77289
   H       -5.19140        -4.21658         3.70741
   H       -7.18845        -4.43268         3.96950
   H       -3.39487        -8.63560         5.13177
   H       -0.40153        -4.88413         1.04481
   H        1.75128        -5.27860         0.09360
   H        6.59276        -9.12794        -0.17570
   H        8.24758       -10.87447         0.10029
   H       11.72218       -15.71238         1.81190
   H       10.83544       -24.32910         8.22820
   H       16.01342       -22.52080        11.22566
   H       13.74998       -26.87652        12.23441
   H       17.62294       -23.13734        13.43633
*
