# ORCA input file
# SCF done       -198.118374994448          0.000614641116
! CAM-B3LYP def2-SVP def2/J RIJCOSX Grid4 TightSCF
%maxcore 5000
%tddft
    Mode sTDDFT
    Ethresh 5.0
    maxcore 5000
end

%pal
  nprocs 6
  end
* xyz 0 1
   C        0.83514        13.20945         3.43440
   C       -0.40063        12.61987         3.39535
   C       -1.47239        13.07948         2.60572
   N       -2.38723        13.39647         1.98858
   C       -0.74818        11.51342         4.19684
   N       -1.07263        10.64230         4.87276
   C        1.17487        14.49788         2.85043
   C        2.29378        15.03214         3.55568
   C        2.80731        16.25949         3.24980
   C        2.22471        17.00777         2.20118
   C        1.12632        16.46182         1.47495
   C        0.60731        15.19242         1.81801
   C        0.57042        17.21385         0.42024
   C        1.06724        18.44777         0.10002
   C        2.14524        18.98621         0.81834
   C        2.71137        18.28136         1.84561
   C        2.75248        14.05351         4.56113
   O        3.63683        14.17719         5.37726
   C        1.93565        12.83406         4.30399
   C        2.34151        11.61170         4.74071
   C        1.92670        10.36787         4.20858
   C        1.93486         9.13320         4.84520
   O        2.34798         8.94246         6.11872
   C        2.40295         7.57196         6.47419
   C        1.19469         6.78805         5.94033
   C       -0.12215         7.31492         6.50315
   O        1.19132         6.84215         4.51292
   C        1.38618         8.10200         4.06124
   C        0.99024         8.53171         2.80093
   S        1.31705        10.22121         2.57692
   C        0.28429         7.83994         1.80907
   C       -0.31648         8.49243         0.72480
   C       -1.08504         7.62353        -0.12243
   N       -1.72305         8.12999        -1.17745
   C       -1.64881         9.42751        -1.37363
   C       -2.39715         9.97428        -2.53212
   O       -2.98729         9.27434        -3.33012
   C       -2.38710        11.44394        -2.63825
   C       -1.70146        12.24696        -1.81712
   C       -0.86614        11.75703        -0.70970
   O       -0.19261        12.50101        -0.02372
   C       -0.90809        10.29191        -0.50417
   N       -0.24105         9.80296         0.51966
   C       -1.05663         6.28919         0.32220
   S       -0.10126         6.15870         1.78259
   C       -1.64864         5.13758        -0.22676
   C       -2.45292         5.03596        -1.36587
   O       -2.83335         6.06575        -2.14126
   C       -3.88158         5.74007        -3.03289
   C       -3.64760         4.37861        -3.70090
   C       -2.38411         4.38143        -4.55569
   O       -3.57729         3.36178        -2.69882
   C       -2.83475         3.71562        -1.62952
   C       -2.36612         2.77844        -0.69508
   S       -1.42914         3.58131         0.54133
   C       -2.61839         1.41254        -0.85159
   C       -2.27298         0.36526        -0.03493
   C       -2.54931        -1.03510        -0.27318
   C       -3.01207        -1.60085        -1.43449
   C       -3.25179        -2.98060        -1.59727
   N       -3.47103        -4.09074        -1.79321
   C       -3.27519        -0.90766        -2.63404
   N       -3.49262        -0.42631        -3.65436
   C       -2.18719        -1.76438         0.93941
   C       -1.63167        -0.84227         1.87331
   C       -1.64282         0.50455         1.28152
   O       -1.22370         1.52938         1.79497
   C       -1.19386        -1.23569         3.10431
   C       -1.29881        -2.59718         3.46930
   C       -1.85744        -3.52493         2.54420
   C       -2.29836        -3.08716         1.27309
   C       -1.96163        -4.87908         2.92017
   C       -1.53490        -5.29931         4.15086
   C       -0.98478        -4.38507         5.06098
   C       -0.86886        -3.06268         4.72712
   H        3.65008        16.65599         3.79658
   H       -0.20398        14.77618         1.24233
   H       -0.26125        16.79475        -0.12660
   H        0.63239        19.01716        -0.70806
   H        2.52541        19.96153         0.55301
   H        3.54272        18.69089         2.40092
   H        3.09405        11.58575         5.52126
   H        2.43432         7.54462         7.56385
   H        3.32385         7.12862         6.07101
   H        1.31871         5.72698         6.17725
   H       -0.25302         8.36892         6.26507
   H       -0.13813         7.19164         7.58220
   H       -0.94981         6.75935         6.06974
   H       -2.98047        11.84665        -3.44836
   H       -1.72241        13.32166        -1.93637
   H       -3.90284         6.55036        -3.76189
   H       -4.83316         5.71452        -2.48452
   H       -4.51666         4.10524        -4.30646
   H       -1.53139         4.72942        -3.97629
   H       -2.52041         5.04200        -5.40666
   H       -2.18198         3.37468        -4.91297
   H       -3.17927         1.19324        -1.75272
   H       -0.77495        -0.51711         3.79306
   H       -2.71946        -3.81425         0.59715
   H       -2.38546        -5.57953         2.21554
   H       -1.61938        -6.33907         4.42937
   H       -0.65353        -4.73326         6.02796
   H       -0.44612        -2.35377         5.42412
*
