# ORCA input file
# SCF done       -170.347057404475          0.000489077113
! CAM-B3LYP def2-SVP def2/J RIJCOSX Grid4 TightSCF
%maxcore 5000
%tddft
    Mode sTDDFT
    Ethresh 5.0
    maxcore 5000
end

%pal
  nprocs 6
  end
* xyz 0 1
   C       -5.61046        -1.52580        -1.69212
   C       -4.78717        -2.52240        -1.22904
   C       -4.45315        -3.67602        -1.96734
   N       -4.13953        -4.63636        -2.51379
   C       -4.16224        -2.56331         0.03453
   N       -3.61805        -2.69274         1.03816
   C       -6.26034        -1.51602        -3.00148
   C       -7.05213        -0.34644        -3.10558
   C       -7.79158        -0.04380        -4.22204
   C       -7.74578        -0.94034        -5.29513
   C       -6.95193        -2.10555        -5.18485
   C       -6.20587        -2.41166        -4.05226
   S       -7.03547        -3.07380        -6.62556
   C       -8.12031        -1.91432        -7.34619
   C       -8.40746        -0.85693        -6.55108
  Br       -8.77142        -2.20956        -9.08034
   C       -6.92460         0.43165        -1.86024
   O       -7.48288         1.48839        -1.61530
   C       -6.00713        -0.31823        -1.00164
   C       -5.58677         0.07585         0.24790
   C       -5.90202         1.22758         0.97126
   S       -6.96403         2.53273         0.51678
   C       -6.64503         3.37549         2.00250
   C       -5.76034         2.66680         2.82287
   C       -5.34256         1.47013         2.24542
   O       -4.53450         0.53532         2.79129
   S       -3.38416         1.00726         3.90168
   C       -4.51979         1.77585         5.08438
   S       -5.26195         3.28910         4.39217
   C       -7.23735         4.61347         2.31230
   C       -8.11623         5.25112         1.48981
   C       -8.73417         6.47949         1.77167
   S       -8.46494         7.37211         3.24918
   C       -9.61295         8.61843         2.79845
   C      -10.09052         8.37173         1.50309
   C       -9.63424         7.16796         0.96026
   S      -10.22621         6.43803        -0.52754
   C      -11.70347         7.33698        -0.93564
   O      -12.57004         6.77427        -1.54600
   C      -11.76869         8.83131        -0.71865
   O      -12.43631         9.50284        -1.46102
   S      -10.82655         9.63727         0.52613
   C       -9.96061         9.60246         3.73550
   C      -11.18428        10.23510         3.82491
   C      -11.55775        11.27813         4.70369
   C      -12.86084        11.68075         4.58394
   C      -13.58390        10.96957         3.61165
   S      -12.57704         9.73152         2.89950
   C      -14.85790        11.13767         3.08910
   C      -15.90205        12.01124         3.44306
   C      -16.99851        11.90619         2.63189
   C      -16.86844        10.95484         1.59622
   S      -15.30948        10.17083         1.70577
   C      -17.78318        10.65713         0.60731
   C      -17.59876         9.76851        -0.44941
   S      -16.11585         8.87102        -0.75896
   C      -16.71924         8.09495        -2.18985
   C      -18.03232         8.50790        -2.43077
   C      -18.50607         9.43496        -1.46277
   N      -19.77281         9.74556        -1.81722
   N      -20.13999         9.09067        -2.93247
   C      -19.13121         8.35262        -3.31736
   C      -15.86379         7.19824        -2.89528
   C      -16.21106         6.52032        -3.99386
   H       -8.38453         0.85614        -4.26732
   H       -5.61721        -3.31292        -4.02048
   H       -9.05775        -0.05007        -6.83594
   H       -4.89876        -0.57661         0.77246
   H       -5.30256         1.06659         5.34546
   H       -3.94654         2.07128         5.95757
   H       -6.96834         5.06364         3.26031
   H       -8.37522         4.79399         0.54294
   H       -9.24152         9.80185         4.51846
   H      -10.84715        11.72033         5.37934
   H      -13.30208        12.48066         5.15157
   H      -15.82310        12.68914         4.27397
   H      -17.89051        12.49813         2.74141
   H      -18.73394        11.17438         0.64526
   H      -20.42439        10.36869        -1.37067
   H      -19.21883         7.74666        -4.19543
   H      -14.86994         7.08694        -2.48206
   H      -17.18928         6.60407        -4.43357
   H      -15.51417         5.86028        -4.47818
*
