# ORCA input file
# SCF done       -196.412502379742          0.000626785087
! CAM-B3LYP def2-SVP def2/J RIJCOSX Grid4 TightSCF
%maxcore 5000
%tddft
    Mode sTDDFT
    Ethresh 5.0
    maxcore 5000
end

%pal
  nprocs 6
  end
* xyz 0 1
   C       -5.34350         2.73271         5.95606
   C       -4.32755         2.18398         6.70597
   C       -4.52838         1.44152         7.88560
   N       -4.62191         0.82703         8.85220
   C       -2.95099         2.28793         6.42972
   N       -1.81089         2.32416         6.28233
   C       -6.76741         2.60345         6.26086
   C       -7.50132         3.31352         5.28203
   C       -8.87116         3.38870         5.29152
   C       -9.55502         2.71943         6.31324
   C       -8.81426         2.00982         7.28465
   C       -7.42550         1.94068         7.27882
   S       -9.85458         1.25615         8.45710
   C      -11.25073         1.89770         7.63388
   C      -10.95677         2.63705         6.53887
  Br      -12.96817         1.53014         8.29612
   C       -6.56196         3.93011         4.31797
   O       -6.87161         4.69838         3.42584
   C       -5.21839         3.49597         4.73824
   C       -4.02565         3.86928         4.15256
   C       -3.83366         4.45559         2.89671
   C       -4.70507         4.37585         1.72054
   C       -5.54476         3.36704         1.44423
   C       -4.25447         5.40000         0.78515
   C       -2.95722         5.82704         1.23986
   C       -2.72368         5.23345         2.54408
   C       -1.55450         5.50851         3.28419
   C       -0.55865         6.30077         2.82317
   S       -0.56652         7.12462         1.30882
   C       -2.08380         6.67539         0.63542
   C       -4.98238         5.93328        -0.25829
   C       -6.35845         5.76625        -0.36646
   C       -7.19632         6.19868        -1.38504
   C       -6.84977         6.59838        -2.75309
   C       -5.67910         6.36564        -3.36874
   C       -8.06251         7.11261        -3.39289
   C       -9.13444         6.94476        -2.45161
   C       -8.59123         6.34909        -1.24102
   C       -9.38032         6.06367        -0.11639
   C      -10.71047         6.32195        -0.04746
   S      -11.61180         7.09286        -1.30253
   C      -10.44232         7.33052        -2.53081
   C       -8.07820         7.63178        -4.67930
   C       -9.18570         7.90767        -5.45837
   C       -9.13690         8.45636        -6.74682
   C      -10.29114         8.78667        -7.46063
   O      -10.27047         9.00434        -8.82785
   C       -9.03870         9.04460        -9.39640
   C       -7.84720         8.86113        -8.63332
   C       -6.72159         8.97298        -9.38166
   S       -7.09708         9.30068       -11.03230
   C       -8.78968         9.28829       -10.70837
   O       -7.87599         8.57687        -7.30381
   C      -11.58572         8.88377        -6.89883
   C      -11.84731         9.21989        -5.60236
   C      -13.10535         9.15997        -4.93280
   C      -14.21217         8.51750        -5.46079
   C      -15.39568         8.42476        -4.71398
   C      -16.61803         7.82896        -5.01068
   C      -16.96447         7.12095        -6.27842
   C      -17.54383         5.71578        -6.03524
   N      -17.14606         4.83436        -7.11901
   C      -17.90999         7.98214        -7.13523
   N      -17.18300         9.13258        -7.64048
   C      -17.47533         8.04512        -3.87215
   C      -18.75662         7.70188        -3.62837
   C      -19.41996         8.00566        -2.32667
   C      -18.58741         8.79887        -1.37545
   C      -17.31955         9.15825        -1.63812
   C      -16.71032         8.79517        -2.86521
   C      -15.45358         9.01738        -3.38310
   C      -14.30983         9.67046        -2.86416
   C      -13.18459         9.73281        -3.61441
   C      -19.85529         6.67077        -1.74772
   C      -19.23416         6.04857        -0.76526
   H       -9.40167         3.94311         4.53316
   H       -6.90876         1.38868         8.04561
   H      -11.69584         3.10622         5.91541
   H       -3.13110         3.73517         4.74687
   H       -6.02154         3.27496         0.48490
   H       -5.73673         2.58494         2.15768
   H       -1.42916         5.04790         4.25389
   H        0.34160         6.47841         3.38728
   H       -2.27212         7.12251        -0.32646
   H       -4.48283         6.60679        -0.94199
   H       -6.83822         5.33960         0.50502
   H       -4.86730         5.86230        -2.87751
   H       -5.51686         6.63906        -4.39658
   H       -8.91031         5.61021         0.74518
   H      -11.30615         6.08374         0.81661
   H      -10.86602         7.84410        -3.37391
   H       -7.11546         7.83818        -5.12785
   H      -10.16252         7.61031        -5.12599
   H       -5.70483         8.88155        -9.06233
   H       -9.49689         9.46026       -11.49212
   H      -12.39770         8.75394        -7.60077
   H      -11.01981         9.58823        -5.00754
   H      -14.16488         8.07128        -6.44160
   H      -16.04620         6.98418        -6.85575
   H      -18.63829         5.77779        -5.91065
   H      -17.12383         5.30735        -5.11157
   H      -17.51676         5.16919        -8.00198
   H      -17.50082         3.89677        -6.96694
   H      -18.79622         8.25203        -6.53415
   H      -18.25118         7.40658        -8.00173
   H      -16.79604         9.66265        -6.86585
   H      -17.79795         9.74478        -8.16501
   H      -19.35072         7.15571        -4.34691
   H      -20.34244         8.57065        -2.53497
   H      -19.06518         9.06553        -0.44434
   H      -16.74828         9.73272        -0.92271
   H      -14.34578        10.10652        -1.87638
   H      -12.30363        10.22875        -3.23005
   H      -20.71414         6.22351        -2.23038
   H      -18.36855         6.46993        -0.28261
   H      -19.57147         5.09255        -0.40248
*
