# ORCA input file
# SCF done       -152.970063563939          0.000940861557
! CAM-B3LYP def2-SVP def2/J RIJCOSX Grid4 TightSCF
%maxcore 5000
%tddft
    Mode sTDDFT
    Ethresh 5.0
    maxcore 5000
end

%pal
  nprocs 6
  end
* xyz 0 1
   C        3.28550         7.32467         4.36735
   S        2.97390         8.56073         5.48833
   C        3.07800         9.73188         4.22085
   N        2.88600        11.09750         4.53008
   O        3.08763        11.89756         3.64027
   O        2.52259        11.35989         5.65582
   C        3.34628         9.18158         2.99990
   C        3.46555         7.77218         3.06868
   C        3.75150         6.96850         1.91167
   C        3.69726         5.62002         1.86509
   C        3.97878         4.79785         0.72502
   C        4.89635         5.08123        -0.27820
   O        4.99875         4.30832        -1.41537
   C        4.24069         3.17559        -1.43090
   C        3.38246         2.83253        -0.34705
   C        2.73197         1.65580        -0.53874
   S        3.15808         0.95170        -2.04818
   C        4.22277         2.25374        -2.42515
   O        3.24030         3.64873         0.73668
   C        5.85080         6.11471        -0.17027
   C        6.72957         6.43671        -1.17416
   C        7.74995         7.39079        -1.10762
   S        8.87883         7.49330        -2.42967
   C        9.86662         8.76239        -1.62498
   S       11.23273         9.39531        -2.31536
   C        9.27079         9.04343        -0.41925
   C        8.09925         8.33536        -0.10303
   C        7.49433         8.70374         1.11642
   C        8.15013         9.67788         1.82862
   S        9.63233        10.18479         0.89864
   O       10.81406         9.81947         1.63034
   O        9.52816        11.55160         0.47324
   C        7.81133        10.15894         3.08194
   S        6.44436         9.49942         3.96178
   C        6.80655        10.46797         5.43081
   S        5.86542        10.37387         6.78809
   C        7.93359        11.22043         5.17092
   C        8.48125        11.09905         3.89344
   C        9.63010        11.90009         3.62037
   C       10.07116        12.60375         4.68769
   S        8.92364        12.39742         6.09841
   O        8.17663        13.58864         6.35629
   O        9.59536        11.75520         7.18820
   C       11.18614        13.43323         4.93888
   C       12.36527        13.47644         4.22636
   O       13.38361        14.31924         4.56306
   C       13.19689        15.07650         5.68226
   C       11.99667        14.99454         6.44930
   C       12.00879        15.80616         7.53492
   S       13.48751        16.68487         7.63359
   C       14.09614        15.95171         6.20033
   O       10.97084        14.18493         6.07332
   C       12.67289        12.61059         3.11007
   C       13.68091        12.84425         2.26854
   H        3.33764         6.30981         4.70901
   H        3.44646         9.76480         2.10275
   H        3.97992         7.52701         1.01467
   H        3.30873         5.07008         2.71092
   H        2.03614         1.17459         0.11617
   H        4.76951         2.26539        -3.34453
   H        5.91436         6.59717         0.78688
   H        6.65351         5.89083        -2.10487
   H        6.57799         8.27794         1.48848
   H       10.04771        11.94873         2.63093
   H       11.23904        15.93091         8.26706
   H       15.06697        16.19950         5.82508
   H       12.06360        11.72812         2.99911
   H       14.29453        13.72591         2.34734
   H       13.89784        12.15901         1.46927
*
