# ORCA input file
# SCF done       -201.643898711443          0.000885801794
! CAM-B3LYP def2-SVP def2/J RIJCOSX Grid4 TightSCF
%maxcore 5000
%tddft
    Mode sTDDFT
    Ethresh 5.0
    maxcore 5000
end

%pal
  nprocs 6
  end
* xyz 0 1
   C        3.69336        -6.20040        -6.40868
   C        3.11407        -7.33437        -5.90756
   C        3.72849        -8.04117        -4.86294
   C        4.91211        -7.60417        -4.33328
   C        5.53699        -6.44036        -4.82562
   C        6.76442        -5.98912        -4.28807
   C        7.34356        -4.85700        -4.79426
   C        6.70651        -4.13509        -5.84696
   C        5.52434        -4.55228        -6.38796
   C        4.91186        -5.72283        -5.88668
   C        7.51294        -2.94958        -6.18687
   O        7.32344        -2.13790        -7.06225
   C        8.60048        -2.91742        -5.16351
   C        8.60174        -4.19367        -4.47535
   C        9.68623        -4.77639        -3.87658
   C       10.97093        -4.19250        -3.87699
   N       12.03918        -3.77431        -3.91595
   C        9.66287        -6.05964        -3.29453
   N        9.68651        -7.09213        -2.79375
   C        9.29399        -1.77244        -4.95427
   C       10.06470        -1.38369        -3.82268
   C       11.05219        -0.43414        -3.81839
   C       11.62921        -0.21574        -2.54917
   C       11.01123        -1.00722        -1.54035
   S        9.75532        -2.01176        -2.20987
   C       11.39276        -0.95315        -0.22143
   C       12.43816        -0.08656         0.11814
   C       13.06168         0.70057        -0.89015
   C       12.67212         0.64808        -2.20735
   S       14.34037         1.68988        -0.23442
   C       14.03872         1.05553         1.36933
   C       13.01239         0.13820         1.38482
   C       14.81800         1.49272         2.48027
   C       15.85612         2.43424         2.30982
   C       16.66739         2.89808         3.40391
   N       17.64016         3.78828         3.17135
   C       17.84815         4.23464         1.95884
   C       17.03608         3.77594         0.86908
   N       16.08207         2.90447         1.07690
   C       17.25881         4.26290        -0.44296
   N       17.46713         4.68022        -1.48897
   C       18.88231         5.17690         1.73256
   N       19.70698         5.94013         1.51066
   C       16.47916         2.45314         4.73026
   C       15.44238         1.50953         4.90801
   C       14.62927         1.03721         3.80460
   N       13.71921         0.15144         4.21471
   S       13.86262        -0.06854         5.79503
   N       15.07899         0.94039         6.05904
   C       17.29626         2.94735         5.78914
   C       17.20670         2.62672         7.12490
   C       18.15510         3.28906         7.92898
   C       18.99650         4.14123         7.15729
   S       18.57682         4.09560         5.46293
   C       19.99740         4.89036         7.72391
   C       20.17941         4.80507         9.10896
   C       19.33412         3.95499         9.88170
   C       18.33359         3.20035         9.31350
   S       19.75019         4.02913        11.56671
   C       21.04348         5.18874        11.23807
   C       21.12883         5.48117         9.89762
   C       21.76930         5.63564        12.36871
   C       22.81132         6.50899        12.49796
   C       23.41803         6.85094        13.78123
   C       23.07288         6.37759        15.02041
   C       23.71634         6.75977        16.21806
   N       24.18725         7.01835        17.23255
   C       22.05119         5.45299        15.32709
   N       21.25090         4.71210        15.68865
   C       24.48946         7.80856        13.53179
   C       24.55887         8.05368        12.13290
   C       25.47342         8.90860        11.58811
   C       26.38192         9.57593        12.43826
   C       27.35010        10.46785        11.93673
   C       28.21898        11.10327        12.78169
   C       28.15660        10.87498        14.16462
   C       27.22796        10.01446        14.68364
   C       26.31824         9.34165        13.84229
   C       25.36006         8.44910        14.37500
   C       23.52930         7.26620        11.43885
   O       23.33936         7.26268        10.24006
   H        3.22516        -5.65198        -7.21297
   H        2.17960        -7.69273        -6.31288
   H        3.25909        -8.93502        -4.48027
   H        5.39077        -8.14708        -3.53153
   H        7.21446        -6.54452        -3.47976
   H        5.06161        -3.99680        -7.19016
   H        9.18867        -1.01605        -5.72688
   H       11.38106         0.06664        -4.71165
   H       10.91439        -1.55923         0.53134
   H       13.15609         1.24948        -2.96005
   H       12.69319        -0.35325         2.28553
   H       16.47542         1.93613         7.50320
   H       20.62960         5.52993         7.12927
   H       17.70161         2.56108         9.90914
   H       21.85373         6.16439         9.49466
   H       21.40917         5.19048        13.28877
   H       25.50070         9.07261        10.52105
   H       27.39271        10.63912        10.87106
   H       28.95904        11.78469        12.38949
   H       28.84878        11.38543        14.81734
   H       27.17627         9.83609        15.74767
   H       25.34263         8.29678        15.44198
*
