# ORCA input file
# SCF done       -200.808638762334          0.000517520517
! CAM-B3LYP def2-SVP def2/J RIJCOSX Grid4 TightSCF
%maxcore 5000
%tddft
    Mode sTDDFT
    Ethresh 5.0
    maxcore 5000
end

%pal
  nprocs 6
  end
* xyz 0 1
   C       -4.15150        -8.23505        -8.53906
   C       -5.05782        -9.10428        -9.12835
   C       -6.24423        -9.44228        -8.49313
   C       -6.56585        -8.91055        -7.25289
   C       -5.67077        -8.03808        -6.65805
   C       -4.45457        -7.70377        -7.29520
   C       -3.70342        -6.80230        -6.43161
   C       -2.54743        -6.14942        -6.76344
   C       -1.90828        -6.26429        -8.01710
   N       -1.33826        -6.30631        -9.01222
   C       -1.85352        -5.23815        -5.93904
   N       -1.23870        -4.48478        -5.32852
   C       -4.43077        -6.73039        -5.16618
   C       -5.74541        -7.30943        -5.40063
   C       -6.90355        -7.01273        -4.73296
   C       -6.99872        -6.07649        -3.68589
   N       -7.12115        -5.32101        -2.82963
   C       -8.16960        -7.53370        -5.07776
   N       -9.22694        -7.91584        -5.30525
   C       -3.87494        -6.30152        -3.99096
   C       -4.32592        -6.54596        -2.68101
   S       -3.68575        -5.61359        -1.33212
   C       -4.63356        -6.43796        -0.11640
   C       -5.36502        -7.41367        -0.75960
   C       -5.20279        -7.47150        -2.14918
   O       -5.98596        -8.47578        -2.62421
   C       -6.62609        -9.00153        -1.54768
   S       -7.68209       -10.21455        -1.63737
   O       -6.26550        -8.37801        -0.40747
   C       -4.65546        -6.05294         1.26035
   C       -5.45012        -6.74394         2.15208
   C       -5.55786        -6.29009         3.47745
   C       -6.33277        -6.75684         4.53248
   C       -7.20662        -7.96170         4.51139
   C       -6.93864        -8.90034         5.70523
   N       -7.23472       -10.25954         5.30623
   C       -8.69272        -7.56227         4.42228
   N       -9.51825        -8.73936         4.20899
   C       -6.14546        -5.82472         5.62139
   C       -6.73756        -5.72700         6.82588
   C       -6.45447        -4.58062         7.74142
   C       -5.35436        -3.67616         7.29218
   C       -4.78053        -3.78043         6.08002
   C       -5.16818        -4.81134         5.19042
   C       -4.82241        -5.10028         3.88764
   C       -3.96777        -4.45441         2.96129
   C       -3.89064        -4.91820         1.69055
   C       -6.33025        -5.06918         9.15585
   C       -5.21243        -5.01009         9.88760
   C       -5.16627        -5.42699        11.25478
   S       -3.71331        -5.32170        12.21397
   C       -4.46360        -5.92416        13.68613
   C       -5.78798        -6.17466        13.39121
   C       -6.16729        -5.90576        12.06699
   O       -7.49932        -6.17825        11.95245
   C       -7.91353        -6.58730        13.17129
   S       -9.42177        -7.01508        13.53490
   O       -6.89163        -6.58619        14.06789
   C       -3.72845        -5.97060        14.89034
   C       -4.07545        -6.56529        16.06894
   C       -3.49489        -6.19808        17.36281
   C       -2.30224        -5.56898        17.58593
   C       -1.37638        -5.19352        16.58805
   N       -0.57816        -4.86689        15.83066
   C       -1.80900        -5.24607        18.86978
   N       -1.35096        -4.95290        19.87982
   C       -4.43689        -6.64138        18.38078
   C       -5.44997        -7.40976        17.76297
   C       -6.49546        -7.93169        18.50563
   C       -6.52160        -7.68699        19.87079
   C       -5.52172        -6.94355        20.48238
   C       -4.47128        -6.41355        19.74793
   C       -5.14804        -7.51339        16.34376
   C       -5.60592        -8.49222        15.50523
   C       -6.57941        -9.44901        15.86834
   N       -7.36299       -10.25245        16.10340
   C       -5.10136        -8.71763        14.20977
   N       -4.71762        -8.92080        13.14702
   H       -3.23137        -7.99120        -9.04398
   H       -4.83018        -9.52742       -10.09474
   H       -6.92794       -10.12951        -8.96735
   H       -7.48517        -9.18760        -6.76308
   H       -2.94113        -5.75841        -4.04158
   H       -6.00901        -7.60756         1.82733
   H       -6.96932        -8.54268         3.61454
   H       -7.52487        -8.56536         6.57639
   H       -5.87779        -8.84816         5.97266
   H       -8.21795       -10.32320         5.05861
   H       -7.04475       -10.90852         6.06114
   H       -8.79877        -6.80561         3.62555
   H       -9.00674        -7.09905         5.36210
   H       -9.31867        -9.14207         3.29821
   H      -10.50131        -8.48997         4.22553
   H       -7.46576        -6.44590         7.17076
   H       -7.38114        -3.97482         7.72673
   H       -5.08263        -2.88552         7.97438
   H       -4.01957        -3.08042         5.76840
   H       -3.39923        -3.59099         3.27162
   H       -3.26043        -4.43386         0.95932
   H       -7.22922        -5.49083         9.58463
   H       -4.29191        -4.62124         9.47839
   H       -2.82000        -5.38404        14.86909
   H       -7.28273        -8.50076        18.03847
   H       -7.33388        -8.07943        20.46294
   H       -5.56236        -6.76758        21.54632
   H       -3.70896        -5.83109        20.23857
*
