# ORCA input file
# SCF done       -173.758674279257          0.000509635844
! CAM-B3LYP def2-SVP def2/J RIJCOSX Grid4 TightSCF
%maxcore 5000
%tddft
    Mode sTDDFT
    Ethresh 5.0
    maxcore 5000
end

%pal
  nprocs 6
  end
* xyz 0 1
   C        2.73377         0.75513         0.05020
   N        1.83091        -0.16678         0.17631
   C        1.29913         0.00838         1.42723
   C        1.94131         1.13877         2.10480
   C        1.37893         1.33153         3.45035
   O        1.66856         2.16340         4.27867
   C        0.37197         0.24786         3.52862
   C        0.36383        -0.53181         2.26364
   N       -0.55534        -1.53156         2.32818
   C       -1.09615        -1.42436         3.51092
   C       -0.56252        -0.33228         4.31582
   C        2.87652         1.63135         1.22515
   C        3.76959         2.71789         1.41342
   C        4.68115         3.13100         0.49901
   C        5.58845         4.20453         0.69515
   S        6.73104         4.59619        -0.56026
   C        7.42903         5.88155         0.38368
   C        6.77057         5.98002         1.61725
   C        5.74592         5.04301         1.78398
   C        7.10650         6.93011         2.60114
   N        7.34929         7.68858         3.42482
   C        8.51073         6.66401        -0.06070
   C        9.10117         6.50486        -1.28131
   C       10.20958         7.26359        -1.70395
   N       10.82680         7.11550        -2.92275
   C       10.48951         6.16086        -3.95112
   C       11.01956         4.76593        -3.62815
   C       11.92785         7.98462        -3.06849
   O       12.62428         8.03223        -4.05810
   C       11.95493         8.72389        -1.82330
   C       10.89985         8.27136        -1.01466
   C       10.94592         9.02257         0.22243
   O       10.23896         8.99890         1.20771
   N       12.05138         9.88399         0.07647
   C       12.39158        10.78395         1.15405
   C       13.45985        10.19412         2.07193
   C       12.67675         9.71161        -1.13642
   C       13.81822        10.32771        -1.68761
   C       14.70952        11.18953        -1.11482
   C       15.84587        11.70176        -1.77621
   C       16.81408        12.49817        -1.18980
   C       17.81950        12.80098        -2.14291
   C       17.40135        12.13935        -3.39743
   C       16.23517        11.48646        -3.16692
   C       18.08112        12.14831        -4.62272
   N       18.60692        12.11678        -5.64264
   C       18.96857        13.53702        -1.94522
   C       19.98173        13.85174        -2.89669
   C       20.98738        14.55750        -2.26732
   C       20.60854        14.73817        -0.87687
   C       19.40045        14.14435        -0.67535
   C       18.71222        14.13344         0.54202
   N       18.17314        14.13802         1.55702
   C       22.16087        15.04963        -2.90440
   N       22.15265        15.29977        -4.20691
   C       23.35644        15.82546        -4.48913
   C       24.20245        15.90666        -3.27927
   C       25.51843        16.47961        -3.61280
   O       26.45247        16.71553        -2.87773
   C       25.41142        16.70925        -5.06496
   C       24.07542        16.30501        -5.55516
   N       23.97829        16.50209        -6.89307
   C       25.14254        16.98124        -7.25392
   C       26.08807        17.12854        -6.16401
   C       23.45907        15.37782        -2.26164
   C       23.82441        15.07921        -0.90196
   C       24.93364        15.53630        -0.32197
   H        3.30232         0.82851        -0.86054
   H       -1.86780        -2.10753         3.82132
   H       -0.87576        -0.08349         5.31041
   H        3.68915         3.21816         2.36860
   H        4.75472         2.62298        -0.45291
   H        5.14535         4.98418         2.67359
   H        8.87922         7.41628         0.62727
   H        8.70879         5.75650        -1.95726
   H       10.95932         6.52665        -4.86834
   H        9.40540         6.14427        -4.09277
   H       12.10241         4.79316        -3.53596
   H       10.75705         4.07952        -4.42809
   H       10.60204         4.39343        -2.69524
   H       11.47071        10.92840         1.72731
   H       12.69826        11.74636         0.73899
   H       13.07379         9.30032         2.55556
   H       13.72420        10.91606         2.83943
   H       14.35646         9.92508         1.51751
   H       13.99639        10.01087        -2.70736
   H       14.60273        11.50299        -0.08767
   H       16.81314        12.83248        -0.17089
   H       15.68521        10.90948        -3.88633
   H       19.98558        13.56730        -3.93015
   H       21.15872        15.30348        -0.14813
   H       25.33093        17.23231        -8.28349
   H       27.09103        17.49649        -6.25324
   H       23.15839        14.41907        -0.36229
   H       25.62100        16.18024        -0.84447
   H       25.18434        15.27150         0.69112
*
