# ORCA input file
# SCF done       -220.962624501738          0.000512932082
! CAM-B3LYP def2-SVP def2/J RIJCOSX Grid4 TightSCF
%maxcore 5000
%tddft
    Mode sTDDFT
    Ethresh 5.0
    maxcore 5000
end

%pal
  nprocs 6
  end
* xyz 0 1
   C       -1.21727         4.62285        -5.44152
   C       -0.19533         4.56829        -4.52812
   C        1.13884         4.24409        -4.85460
   N        2.24005         3.98407        -5.04852
   C       -0.29355         4.85135        -3.14940
   N       -0.27686         5.07926        -2.02340
   C       -1.06541         4.41792        -6.87690
   C       -2.30604         4.68096        -7.50475
   C       -2.48893         4.59013        -8.86317
   C       -1.39018         4.21667        -9.64329
   C       -0.15359         3.94830        -9.00801
   C        0.02968         4.04310        -7.63418
   S        1.06959         3.49807       -10.15683
   C       -0.07977         3.67562       -11.45633
   C       -1.31666         4.05220       -11.05331
  Br        0.46293         3.34653       -13.22058
   C       -3.30960         5.04434        -6.48757
   O       -4.46936         5.31928        -6.70866
   C       -2.60971         4.95739        -5.18317
   C       -3.14689         5.05507        -3.92812
   C       -4.43452         5.42248        -3.49244
   C       -5.54745         5.93568        -4.14812
   C       -6.59801         6.18958        -3.27818
   C       -6.29935         5.86384        -1.93442
   S       -4.72353         5.26239        -1.74995
   C       -7.43708         6.14571        -1.13961
   C       -8.44414         6.66051        -1.96974
   C       -7.96194         6.69008        -3.34135
   C       -8.66796         7.07131        -4.44502
   C       -8.11863         7.08965        -5.74638
   N       -7.69479         7.13131        -6.80989
   C      -10.01743         7.47219        -4.35622
   N      -11.11946         7.78190        -4.27479
   C       -9.60857         6.99491        -1.27685
   C       -9.51411         6.70991         0.07282
   S       -7.93944         6.04702         0.49126
   C      -10.49713         6.85161         1.09795
   S      -10.07270         6.46026         2.74450
   C      -11.65737         6.81949         3.28171
   C      -12.47669         7.21434         2.26641
   C      -11.82181         7.23938         1.01210
   C      -12.52174         7.66541        -0.23614
   C      -14.04497         7.75391        -0.06266
   C      -14.38370         8.45286         1.26296
   O      -15.77808         8.68293         1.26105
   C      -16.24777         9.52625         2.28571
   C      -13.91872         7.57565         2.43008
   N      -14.62401         8.51922        -1.14330
   C      -14.67389         8.14201        -2.43789
   C      -14.14834         7.01620        -2.98177
   C      -14.13303         6.74304        -4.37273
   C      -14.64756         7.48285        -5.42958
   C      -14.42868         6.86709        -6.65657
   C      -13.73236         5.64824        -6.55354
   S      -13.35404         5.27272        -4.92511
   C      -13.58004         5.10033        -7.84275
   C      -14.19326         5.97293        -8.77506
   C      -14.73261         7.11183        -8.06044
   C      -15.37724         8.18854        -8.59692
   C      -15.86230         9.24603        -7.80142
   N      -16.26733        10.09928        -7.15040
   C      -15.60686         8.29402        -9.98466
   N      -15.80116         8.36383       -11.11282
   C      -14.09861         5.52493       -10.08191
   C      -13.41547         4.31785       -10.18320
   S      -12.90680         3.73101        -8.59267
   C      -13.16135         3.52270       -11.31053
   C      -13.27851         3.83166       -12.63897
   C      -13.38120         5.07341       -13.36737
   C      -12.85434         6.29003       -13.00949
   C      -12.86740         7.42691       -13.84255
   N      -12.84434         8.37649       -14.48715
   C      -12.14471         6.51442       -11.81512
   N      -11.54001         6.73034       -10.86296
   C      -13.89843         4.75433       -14.69670
   C      -13.88440         3.34735       -14.86333
   C      -13.41832         2.71784       -13.61088
   O      -13.23166         1.54007       -13.39798
   C      -14.28391         2.73928       -16.02799
   C      -14.73261         3.55802       -17.07033
   C      -14.76034         4.96036       -16.88582
   C      -14.34537         5.57729       -15.71117
   S      -15.36761         5.77845       -18.29316
   C      -15.56901         4.24641       -19.10091
   C      -15.20255         3.17624       -18.35735
  Br      -16.24641         4.20413       -20.84962
   H       -3.44907         4.80184        -9.30685
   H        0.99135         3.82507        -7.20131
   H       -2.14447         4.20826       -11.72060
   H       -2.48496         4.80067        -3.10850
   H       -5.56561         6.09877        -5.21086
   H      -10.46206         7.44042        -1.74540
   H      -11.89893         6.71704         4.32088
   H      -12.29643         6.96456        -1.03833
   H      -12.15341         8.64922        -0.54529
   H      -14.47828         6.74386        -0.03884
   H      -13.85284         9.42054         1.30442
   H      -17.28507         9.74745         2.04206
   H      -15.67397        10.45949         2.32409
   H      -16.20746         9.04183         3.26572
   H      -14.53257         6.66967         2.44777
   H      -14.06195         8.09323         3.38003
   H      -15.25997         9.24262        -0.84561
   H      -15.15793         8.86292        -3.08123
   H      -13.70122         6.25896        -2.35710
   H      -15.15793         8.41889        -5.30306
   H      -14.54907         6.01314       -10.92661
   H      -12.91456         2.48335       -11.11423
   H      -14.25501         1.66607       -16.13267
   H      -14.39185         6.64904       -15.61092
   H      -15.26114         2.15896       -18.69905
*
