# ORCA input file
# SCF done       -202.492279494729          0.000270725389
! CAM-B3LYP def2-SVP def2/J RIJCOSX Grid4 TightSCF
%maxcore 5000
%tddft
    Mode sTDDFT
    Ethresh 5.0
    maxcore 5000
end

%pal
  nprocs 6
  end
* xyz 0 1
   C        0.94366         1.23806        -2.27729
   C        0.02101         1.94387        -2.98607
   S       -1.39246         1.00014        -3.28247
   C       -0.73489        -0.37386        -2.42542
  Cl       -1.60132        -1.81849        -2.27396
   C        0.51212        -0.08976        -1.95590
   C        1.54666        -0.77940        -1.18408
   O        1.45566        -1.82557        -0.58692
   C        2.69715         0.18817        -1.14985
   C        2.27926         1.44335        -1.75513
   C        3.00112         2.59942        -1.88651
   C        2.46383         3.73090        -2.53661
   N        2.04219         4.66241        -3.05660
   C        4.31137         2.80652        -1.41182
   N        5.37768         3.03173        -1.05118
   C        3.89649        -0.07489        -0.56934
   C        4.33978        -1.38908        -0.25225
   S        5.40931        -1.70211         1.10046
   C        4.10333        -2.56179        -0.93473
   C        3.43327        -2.98556        -2.18112
   O        2.85161        -2.33792        -3.01588
   N        3.65301        -4.35473        -2.24847
   C        3.14255        -5.18217        -3.31317
   C        4.42382        -4.85750        -1.20367
   O        4.74494        -6.01226        -1.07115
   C        4.73422        -3.68424        -0.37492
   C        5.48327        -3.41901         0.75597
   C        6.19236        -4.37270         1.52170
   C        6.94844        -4.06519         2.60676
   C        7.68839        -4.92020         3.45917
   N        7.76229        -6.29492         3.49238
   C        7.12840        -7.25940         2.62438
   C        7.88985        -7.43237         1.31216
   C        8.61297        -6.74504         4.52028
   O        8.81969        -7.92072         4.74957
   C        9.09067        -5.53870         5.15765
   C        8.50009        -4.44504         4.49030
   C        8.96776        -3.22414         5.11545
   O        8.73744        -2.05663         4.88994
   N        9.83330        -3.67410         6.13352
   C       10.48106        -2.74814         7.03241
   C        9.75989        -2.66278         8.37471
   C        9.91331        -5.04390         6.17433
   C       10.71868        -5.75690         7.09389
   C       10.75902        -7.11653         7.11573
   C       11.55701        -7.86356         8.01363
   S       11.50207        -9.61472         7.93016
   C       12.43905        -7.47761         9.01160
   C       12.98653        -6.24247         9.59816
   O       12.75107        -5.08257         9.35135
   N       13.88689        -6.66801        10.56782
   C       14.66418        -5.75910        11.37388
   C       13.97825        -8.05009        10.68242
   O       14.69157        -8.64176        11.45498
   C       13.03501        -8.56296         9.68041
   C       12.65045        -9.80828         9.23184
   C       13.15797       -11.04238         9.70097
   C       12.87737       -12.25814         9.17412
   C       13.42306       -13.48028         9.64813
   C       14.57361       -13.72138        10.33413
   C       14.69589       -15.04457        11.03320
   O       13.97199       -15.99879        10.88319
   C       15.83316       -14.87783        11.94182
   C       16.44715       -15.59667        12.92374
   S       17.78724       -14.69622        13.59308
   C       17.50798       -13.36518        12.53011
   C       16.44421       -13.60070        11.71701
   C       15.75280       -12.92445        10.63290
   C       16.28657       -11.87171         9.93767
   C       17.50827       -11.27832        10.32233
   N       18.50009       -10.78238        10.61514
   C       15.75410       -11.30879         8.76397
   N       15.37883       -10.82422         7.79318
  Cl       16.05124       -17.14266        13.49091
   H        0.06879         2.94905        -3.35549
   H        4.58374         0.73124        -0.34638
   H        2.73056        -4.52651        -4.07803
   H        2.36228        -5.84480        -2.93535
   H        3.94957        -5.78678        -3.72742
   H        6.08546        -5.38090         1.15180
   H        7.03277        -3.02082         2.88786
   H        6.08938        -6.97127         2.45230
   H        7.14004        -8.20630         3.17285
   H        8.02233        -6.48053         0.80311
   H        7.34256        -8.10357         0.65667
   H        8.87141        -7.85668         1.50864
   H       10.45130        -1.77467         6.53527
   H       11.52278        -3.04437         7.17725
   H        8.72747        -2.35491         8.22682
   H       10.25501        -1.93195         9.00728
   H        9.77119        -3.62425         8.88229
   H       11.31966        -5.19186         7.79122
   H       10.15768        -7.68690         6.41923
   H       14.28189        -4.75335        11.20948
   H       15.71633        -5.80567        11.08831
   H       14.57212        -6.03268        12.42481
   H       13.81474       -10.95214        10.55726
   H       12.14519       -12.32585         8.37940
   H       12.81300       -14.36547         9.48888
   H       18.14069       -12.50218        12.59056
*
