# ORCA input file
# SCF done       -169.276555284705          0.000376177631
! CAM-B3LYP def2-SVP def2/J RIJCOSX Grid4 TightSCF
%maxcore 5000
%tddft
    Mode sTDDFT
    Ethresh 5.0
    maxcore 5000
end

%pal
  nprocs 6
  end
* xyz 0 1
   C       13.99008         0.99198        -0.18389
   C       13.71894        -0.29896        -0.41498
   C       14.56028        -1.43431        -0.16185
   C       14.01584        -2.62339        -0.49811
   C       12.70408        -2.53665        -1.04397
   S       12.18970        -0.85644        -1.11170
   C       11.90892        -3.56565        -1.47425
   C       12.19620        -4.95667        -1.48494
   C       11.20583        -5.73365        -1.98799
   C       10.05612        -5.01457        -2.41408
   S       10.30555        -3.28043        -2.12909
   C        8.92028        -5.50757        -2.97152
   N        7.88490        -4.71045        -3.34575
   C        6.70073        -5.09667        -3.93114
   C        6.27540        -6.37669        -4.14883
   S        4.72811        -6.42816        -4.89296
   C        4.63863        -4.71751        -4.93694
   C        5.74228        -4.12561        -4.39445
   N        6.00662        -2.76355        -4.31116
   C        5.11889        -1.73982        -4.17443
   C        3.79400        -1.85208        -3.92869
   C        2.91296        -0.75125        -3.79554
   C        3.22468         0.68447        -3.78260
   N        2.19274         1.46086        -3.63668
   C        1.11231         0.62162        -3.54801
   C        1.54323        -0.77654        -3.63681
   C        0.40513        -1.64912        -3.57633
   S        0.38352        -3.29489        -3.67198
   C       -0.71783        -0.75576        -3.44252
   C       -0.25315         0.63600        -3.42366
   N       -1.31482         1.49279        -3.31149
   C       -2.37112         0.73465        -3.26939
   C       -2.09210        -0.70424        -3.35442
   C       -3.00688        -1.79061        -3.36400
   C       -4.35017        -1.67560        -3.27429
   C       -5.29578        -2.76229        -3.30256
   C       -4.90663        -4.09800        -3.49760
   C       -5.86010        -5.08334        -3.53197
   C       -7.22199        -4.77601        -3.36497
   C       -7.62176        -3.46146        -3.16286
   C       -6.66006        -2.47360        -3.13645
   C       -7.98436        -5.99827        -3.48006
   C       -7.09487        -7.06288        -3.71938
   C       -5.66456        -6.57489        -3.70193
   C       -4.90086        -7.07447        -2.45224
   C       -4.76562        -8.58508        -2.31511
   C       -4.91558        -6.91616        -4.99853
   C       -5.59187        -6.32655        -6.23113
   C       -7.58150        -8.32438        -3.95652
   C       -8.96603        -8.56664        -3.91166
   C       -9.83370        -7.49904        -3.63677
   C       -9.35453        -6.22261        -3.43272
   C       -9.42752        -9.90896        -4.15415
   C      -10.70593       -10.34548        -4.11072
   C      -11.12142       -11.68368        -4.34734
   N      -10.29180       -12.73961        -4.66467
   C      -10.97467       -13.95030        -4.83862
   O      -10.43494       -14.99466        -5.11907
   C      -12.36420       -13.58908        -4.60274
   C      -12.40723       -12.18392        -4.30446
   C      -13.78287       -11.81563        -4.06575
   O      -14.32224       -10.76701        -3.78418
   N      -14.47443       -13.03258        -4.23765
   C      -13.63932       -14.06576        -4.55123
   H       14.93354         1.28600         0.24093
   H       13.28424         1.76927        -0.41217
   H       15.53971        -1.30387         0.26331
   H       14.50779        -3.57229        -0.37547
   H       13.13353        -5.33483        -1.11868
   H       11.25269        -6.80493        -2.07271
   H        8.81651        -6.56515        -3.15219
   H        7.98884        -3.73183        -3.11109
   H        6.76720        -7.29444        -3.90310
   H        3.78683        -4.25243        -5.38752
   H        6.97810        -2.50400        -4.40338
   H        5.57531        -0.76336        -4.25909
   H        3.34080        -2.82431        -3.81135
   H        4.20836         1.11307        -3.86804
   H       -3.34698         1.17869        -3.17814
   H       -2.54245        -2.76282        -3.45521
   H       -4.78296        -0.68894        -3.16842
   H       -3.86565        -4.34552        -3.63204
   H       -8.66506        -3.21552        -3.03290
   H       -6.95814        -1.44585        -2.98411
   H       -5.41578        -6.68822        -1.56840
   H       -3.90445        -6.62810        -2.47393
   H       -5.73839        -9.05241        -2.18749
   H       -4.16538        -8.81254        -1.43676
   H       -4.27178        -9.01996        -3.18006
   H       -4.86106        -8.00015        -5.10704
   H       -3.89519        -6.53475        -4.92658
   H       -6.60880        -6.70133        -6.32807
   H       -5.03829        -6.59662        -7.12744
   H       -5.63227        -5.24149        -6.16634
   H       -6.91400        -9.14036        -4.19220
   H      -10.89718        -7.67385        -3.59958
   H      -10.03711        -5.40741        -3.24515
   H       -8.64117       -10.61846        -4.38482
   H      -11.51914        -9.67426        -3.87816
   H       -9.29213       -12.67173        -4.76560
   H      -15.47416       -13.10776        -4.13650
   H      -14.01551       -15.05857        -4.71303
*
