# ORCA input file
# SCF done       -213.175258608756          0.000711535578
! CAM-B3LYP def2-SVP def2/J RIJCOSX Grid4 TightSCF
%maxcore 5000
%tddft
    Mode sTDDFT
    Ethresh 5.0
    maxcore 5000
end

%pal
  nprocs 6
  end
* xyz 0 1
   C        1.07623         0.75872         1.52906
   C        2.30457         1.02792         2.07276
   C        3.12341         0.05860         2.69075
   N        3.83247        -0.68114         3.20761
   C        2.91410         2.29957         2.11643
   N        3.46880         3.30273         2.18733
   C        0.41927        -0.54101         1.51155
   C       -0.88835        -0.38314         0.96942
   C       -1.74158        -1.43895         0.82274
   C       -1.31788        -2.72684         1.21882
   C       -0.00932        -2.89462         1.75816
   C        0.85184        -1.78269         1.89796
   C        0.40500        -4.18546         2.14526
   C       -0.43155        -5.25947         2.00768
   C       -1.71970        -5.09295         1.47716
   C       -2.15383        -3.85357         1.09184
   C       -1.11734         1.03057         0.62864
   O       -2.13131         1.50944         0.16993
   C        0.16978         1.72205         0.92142
   C        0.50680         2.97214         0.50753
   C       -0.35693         3.96461        -0.04250
   C       -1.64537         4.24515         0.30933
   C       -2.05637         5.46075        -0.36741
   C       -3.32873         6.04020        -0.26214
   N       -4.36572         6.52194        -0.16700
   C       -1.00901         5.94563        -1.09895
   C        0.10079         5.04000        -0.95135
   C        1.29934         5.08957        -1.61144
   C        1.89715         6.25597        -2.31004
   C        3.00673         5.80659        -2.97103
   C        3.15424         4.39167        -2.72365
   C        2.16105         3.97323        -1.87658
   C        4.16146         3.59269        -3.28432
   N        4.98544         2.94568        -3.75208
   C        1.44738         7.59685        -2.16541
   C        1.85788         8.63341        -2.94009
   C        1.38833         9.96205        -2.79475
   S        2.05721        11.20897        -3.82877
   C        0.43732        10.53255        -1.96618
   C       -0.48520        10.09451        -0.90744
   O       -0.67693         8.99748        -0.43432
   N       -1.15800        11.24132        -0.51733
   C       -2.16578        11.25616         0.51490
   C       -0.77693        12.37765        -1.21225
   O       -1.24248        13.47782        -1.02095
   C        0.25336        11.92198        -2.15896
   C        1.05843        12.47352        -3.14078
   C        1.20622        13.79861        -3.62093
   C        0.46476        14.84535        -3.17823
   C        0.61405        16.18815        -3.62270
   C        1.19331        16.63511        -4.77729
   C        0.97258        18.05849        -4.88537
   C        1.47317        18.85401        -5.92642
   N        1.89355        19.49136        -6.78283
   C        0.22083        18.48440        -3.82050
   C       -0.00009        17.36275        -2.95359
   C       -0.53045        17.39862        -1.69033
   C       -1.36546        18.47316        -1.09758
   C       -1.53238        18.17390         0.22739
   C       -0.83372        16.94287         0.51697
   C       -0.26172        16.46539        -0.63251
   C       -0.76750        16.33459         1.77862
   N       -0.71847        15.83281         2.80928
   C       -2.00210        19.51997        -1.81844
   C       -2.54127        20.62700        -1.23944
   C       -3.18325        21.62479        -2.00561
   C       -3.71735        22.77577        -1.49718
   C       -4.38321        23.82938        -2.24090
   C       -4.63394        23.85528        -3.58949
   C       -5.29240        24.91297        -4.25168
   N       -5.82149        25.73621        -4.85195
   C       -4.28568        22.84694        -4.51171
   N       -4.03784        22.07303        -5.32361
   C       -4.75465        24.87555        -1.29418
   C       -4.34115        24.47920         0.00976
   C       -3.69182        23.16033        -0.06025
   O       -3.23411        22.52892         0.86996
   C       -4.55253        25.26506         1.10577
   C       -5.20159        26.50951         0.94644
   C       -5.62102        26.91347        -0.35400
   C       -5.38711        26.07820        -1.47043
   C       -6.26963        28.15638        -0.50229
   C       -6.49309        28.96281         0.58039
   C       -6.07827        28.56456         1.86006
   C       -5.44632        27.36391         2.03929
   H       -2.72819        -1.29208         0.40883
   H        1.83848        -1.94361         2.30244
   H        1.39713        -4.30846         2.55407
   H       -0.10512        -6.24406         2.30701
   H       -2.36606        -5.95170         1.37490
   H       -3.14442        -3.71922         0.68264
   H        1.54454         3.27111         0.58866
   H       -2.26110         3.70855         1.00429
   H       -1.04746         6.79281        -1.75371
   H        3.70202         6.38458        -3.54965
   H        1.98292         2.95875        -1.57619
   H        0.74644         7.79617        -1.36942
   H        2.56917         8.47326        -3.73878
   H       -2.33488        10.22881         0.83177
   H       -3.08860        11.68405         0.12301
   H       -1.82900        11.85825         1.35999
   H        1.98197        13.94766        -4.35954
   H       -0.30644        14.65687        -2.44651
   H        1.69389        16.05072        -5.52588
   H       -0.03371        19.50423        -3.60684
   H       -2.11722        18.71641         0.94579
   H        0.37303        15.60491        -0.69721
   H       -2.07500        19.41070        -2.89300
   H       -2.46637        20.77809        -0.17368
   H       -3.24293        21.44845        -3.07223
   H       -4.22744        24.94017         2.08307
   H       -5.71585        26.41562        -2.44033
   H       -6.58694        28.45886        -1.48947
   H       -6.99094        29.91282         0.45658
   H       -6.26203        29.21376         2.70303
   H       -5.12472        27.05174         3.02215
*
