# ORCA input file
# SCF done       -220.615323481983          0.000823157513
! CAM-B3LYP def2-SVP def2/J RIJCOSX Grid4 TightSCF
%maxcore 5000
%tddft
    Mode sTDDFT
    Ethresh 5.0
    maxcore 5000
end

%pal
  nprocs 6
  end
* xyz 0 1
   C       21.40436        -4.58461        -2.52848
   C       22.09766        -5.73749        -2.28515
   F       23.08186        -5.73678        -1.36599
   C       21.82432        -6.93504        -2.95869
   C       20.82718        -6.95413        -3.89431
   C       20.07963        -5.79480        -4.18396
   C       20.37531        -4.58601        -3.48969
   C       19.64445        -3.40692        -3.76967
   C       18.64783        -3.44379        -4.70501
   C       18.34476        -4.65896        -5.38433
   C       19.04098        -5.80688        -5.14324
   C       17.20580        -4.43246        -6.29849
   O       16.70119        -5.22141        -7.06732
   C       16.76252        -3.04334        -6.02786
   C       17.76368        -2.40006        -5.21940
   C       18.01846        -1.05013        -5.16188
   C       17.33771        -0.11244        -5.96209
   N       16.83630         0.67172        -6.63541
   C       19.03066        -0.47151        -4.37602
   N       19.81553         0.05859        -3.72550
   C       15.51489        -2.65150        -6.44606
   C       14.67648        -1.64944        -5.95086
   S       14.95133        -0.82976        -4.44034
   C       13.46800         0.05116        -4.52043
   C       12.75873        -0.28495        -5.69318
   C       13.43654        -1.24700        -6.49558
   C       12.86742        -1.67523        -7.70562
   C       11.65862        -1.15956        -8.08533
   F       11.09408        -1.55855        -9.23365
   C       10.98683        -0.20724        -7.29030
   F        9.80379         0.27225        -7.70588
   C       11.52099         0.23164        -6.11096
   C       13.09043         0.96156        -3.51383
   C       13.90440         1.31427        -2.48308
   C       13.61508         2.21677        -1.41472
   C       14.63895         2.55127        -0.54489
   C       14.41236         3.42509         0.52950
   C       15.25633         3.90712         1.52629
   C       16.71004         3.64866         1.72485
   C       16.97887         2.16019         2.03024
   N       18.21142         2.04690         2.78161
   C       17.53302         4.14070         0.51880
   N       18.95552         4.08039         0.81403
   C       14.44549         4.72861         2.39106
   C       14.74589         5.37904         3.53128
   C       13.71926         6.15973         4.27697
   C       12.34971         6.13151         3.67392
   C       12.06577         5.47193         2.53569
   C       13.07475         4.74599         1.85850
   C       13.06763         3.95584         0.72921
   C       12.03795         3.60456        -0.17649
   C       12.30592         2.77171        -1.21093
   C       14.17505         7.59000         4.36621
   C       14.48435         8.21952         5.51560
   C       14.89314         9.58207         5.67993
   C       15.13823         9.93695         6.96258
   C       14.94662         8.88898         7.90417
   S       14.43632         7.42790         7.09882
   C       15.12391         8.93829         9.27018
   C       15.53351        10.03947        10.05835
   C       15.61669         9.75839        11.38776
   C       15.28027         8.42356        11.72189
   S       14.84750         7.53322        10.28055
   C       15.28397         7.86749        12.98430
   C       14.94499         6.53823        13.22616
   C       14.94153         5.93382        14.46566
   C       14.60162         4.56294        14.75413
   C       14.19546         3.59906        13.86041
   C       13.87453         2.27457        14.21817
   N       13.59776         1.18214        14.44166
   C       14.03433         3.77716        12.47198
   N       13.87521         3.83207        11.33482
   C       14.75895         4.35991        16.19324
   C       15.17628         5.57885        16.78070
   C       15.30332         6.60851        15.72785
   O       15.63954         7.76536        15.89248
   C       15.41161         5.71156        18.12665
   C       15.22785         4.58471        18.93573
   C       14.81227         3.37116        18.34061
   C       14.57296         3.23788        16.97776
   S       14.64831         2.10440        19.51946
   C       15.13400         3.20886        20.77822
   C       15.40510         4.46127        20.34130
  Br       15.23764         2.60376        22.55110
   H       21.64476        -3.67942        -1.99297
   H       22.40447        -7.81364        -2.72518
   H       20.59760        -7.86520        -4.42621
   H       19.88470        -2.50547        -3.22803
   H       18.80351        -6.71556        -5.67579
   H       15.07778        -3.29812        -7.20056
   H       13.36203        -2.39334        -8.33853
   H       10.98920         0.96497        -5.52766
   H       12.10752         1.39751        -3.61120
   H       14.89795         0.87991        -2.46780
   H       15.61956         2.12732        -0.69916
   H       17.05043         4.20334         2.60464
   H       16.98193         1.59251         1.08617
   H       16.16488         1.77107         2.65191
   H       18.97008         2.42612         2.22089
   H       18.41488         1.07634         2.99189
   H       17.18735         5.15594         0.25564
   H       17.34954         3.49749        -0.34408
   H       19.19583         4.75705         1.53150
   H       19.49865         4.29647        -0.01451
   H       15.74056         5.37243         3.95486
   H       13.66866         5.76259         5.30213
   H       11.59360         6.68896         4.20481
   H       11.06267         5.47391         2.13472
   H       11.04478         4.00237        -0.02863
   H       11.51777         2.49726        -1.89385
   H       14.23034         8.12971         3.43203
   H       14.98341        10.23814         4.83269
   H       15.45132        10.91826         7.27101
   H       15.75329        10.99967         9.62729
   H       15.91017        10.46383        12.14460
   H       15.56586         8.49618        13.81648
   H       14.66815         5.94395        12.36386
   H       15.72853         6.65469        18.54362
   H       14.25812         2.29010        16.57462
   H       15.71747         5.26601        20.98160
*
