# ORCA input file
# SCF done       -197.604021230377          0.000656588407
! CAM-B3LYP def2-SVP def2/J RIJCOSX Grid4 TightSCF
%maxcore 5000
%tddft
    Mode sTDDFT
    Ethresh 5.0
    maxcore 5000
end

%pal
  nprocs 6
  end
* xyz 0 1
   C        7.21750         0.87055         7.39657
   C        7.66451        -0.25211         8.28683
   O        6.93530        -0.99290         8.90463
   C        9.12734        -0.26283         8.16370
   C        9.54533         0.85280         7.43057
   C        8.38769         1.66991         7.08373
   C        8.39861         2.99212         6.74679
   C        7.23319         3.78780         6.66883
   N        6.33741         4.50438         6.69197
   C        9.57682         3.74724         6.56116
   N       10.50691         4.40030         6.40540
   C       10.90152         1.04945         7.14346
   C       11.81079         0.13055         7.60062
   C       11.42419        -1.00083         8.35316
   C       10.04614        -1.21570         8.64866
   C        9.66401        -2.35024         9.39175
   C       10.61104        -3.23686         9.82757
   C       11.96940        -3.02961         9.54130
   C       12.36862        -1.93651         8.82093
   C        5.95169         0.87499         6.91537
   C        5.46997         1.59374         5.78588
   N        6.28389         2.17769         4.92131
   C        5.49508         2.67569         3.94772
   C        4.07876         2.36455         4.19682
   C        3.23560         2.92632         3.12766
   O        2.03750         2.82802         2.97962
   C        4.21845         3.61999         2.27218
   C        5.58835         3.42174         2.80176
   N        6.49875         4.05697         2.02298
   C        5.79871         4.63462         1.08059
   C        4.36541         4.40795         1.17966
   C        4.04381         1.68139         5.38642
   C        2.95089         1.16951         6.14199
   C        1.68918         1.11805         5.65844
   C        0.55440         0.61049         6.37400
   C       -0.65158         0.42887         5.71161
   C       -1.78206        -0.08873         6.34383
   F       -2.88681        -0.22381         5.60271
   C       -1.83308        -0.39499         7.69616
   C       -0.62838        -0.19200         8.41121
   C        0.56829         0.27242         7.75696
   N        1.59218         0.33362         8.60750
   S        1.10607        -0.14342        10.06354
   N       -0.42306        -0.45163         9.70213
   C       -3.00689        -0.95743         8.32496
   N       -3.64983        -1.96291         7.77825
   C       -4.65085        -2.27351         8.63584
   C       -4.66327        -1.35794         9.78882
   C       -5.76271        -1.70645        10.70489
   O       -6.10836        -1.14780        11.72528
   C       -6.35373        -2.89372        10.06455
   C       -5.64991        -3.19629         8.79576
   N       -6.19098        -4.28935         8.20136
   C       -7.15174        -4.67475         9.00114
   C       -7.30738        -3.84938        10.18650
   C       -3.60165        -0.50463         9.60699
   C       -3.18406         0.61789        10.37244
   C       -3.83717         0.98961        11.50033
   C       -3.49568         2.11843        12.28576
   C       -4.06062         2.42662        13.48186
   C       -3.98699         3.80796        14.03767
   O       -3.19728         4.66653        13.71124
   C       -5.10649         3.88973        14.99203
   C       -5.70292         2.63343        15.12386
   C       -4.96844         1.66364        14.31727
   C       -4.97534         0.30588        14.47842
   C       -4.02882        -0.56167        13.88715
   N       -3.23576        -1.29596        13.50255
   C       -5.83942        -0.38048        15.35811
   N       -6.51849        -0.98445        16.05883
   C       -6.81919         2.45645        15.95112
   C       -7.31107         3.53865        16.63326
   C       -6.72476         4.81970        16.53251
   C       -5.59144         5.01356        15.69014
   C       -5.01485         6.29563        15.58702
   C       -5.53874         7.34370        16.29277
   C       -6.65356         7.15805        17.12570
   C       -7.23425         5.92502        17.24362
   H       11.22405         1.89849         6.56332
   H       12.86069         0.26431         7.38382
   H        8.61780        -2.50130         9.60561
   H       10.31755        -4.10599        10.39677
   H       12.69942        -3.74249         9.89447
   H       13.41353        -1.77462         8.60003
   H        5.26446         0.18001         7.38512
   H        6.28848         5.21369         0.31700
   H        3.62613         4.79813         0.50859
   H        3.15239         0.80907         7.14012
   H        1.49146         1.46324         4.65176
   H       -0.72807         0.67593         4.66357
   H       -7.74995        -5.53543         8.75658
   H       -8.03236        -4.00116        10.96147
   H       -2.31776         1.16821        10.03499
   H       -4.70073         0.41600        11.80539
   H       -2.80007         2.84280        11.87618
   H       -7.29146         1.49163        16.03923
   H       -8.17524         3.42145        17.27118
   H       -4.15939         6.42715        14.94348
   H       -5.09658         8.32554        16.21300
   H       -7.05086         7.99962        17.67363
   H       -8.09224         5.77948        17.88395
*
