# ORCA input file
# SCF done       -165.987278789766          0.000226339966
! CAM-B3LYP def2-SVP def2/J RIJCOSX Grid4 TightSCF
%maxcore 5000
%tddft
    Mode sTDDFT
    Ethresh 5.0
    maxcore 5000
end

%pal
  nprocs 6
  end
* xyz 0 1
   C       11.23617         0.17058       -10.20220
   C       11.37267         1.44338        -9.87451
   C       12.66381         2.18922       -10.01048
   C       10.24236         2.28798        -9.32147
   N        8.97249         1.61746        -9.20881
   C        8.64651         0.77158        -8.21252
   C        9.42831         0.46389        -7.14278
   C        9.06849        -0.41088        -6.09500
   N       10.03144        -0.97997        -5.36934
   C        9.42037        -1.85462        -4.56062
   C        7.95978        -1.84691        -4.76302
   C        7.31291        -2.81966        -3.86849
   O        6.13605        -3.11707        -3.79918
   C        8.44669        -3.36075        -3.10656
   C        9.71067        -2.75961        -3.56256
   N       10.75518        -3.24149        -2.85044
   C       10.22275        -4.08186        -1.98920
   C        8.79098        -4.19768        -2.08769
   C        7.71233        -0.87709        -5.70008
   C        6.47055        -0.32348        -6.13352
   C        5.28054        -0.93513        -5.95015
   C        3.99825        -0.41424        -6.35108
   C        3.78825         0.91190        -6.66056
   C        2.51495         1.35319        -7.06558
   C        2.05732         2.61524        -7.42103
   C        2.85291         3.87715        -7.42714
   C        3.03189         4.41670        -8.85586
   N        3.77948         3.45687        -9.65061
   C        2.24602         4.93475        -6.48326
   N        3.28002         5.86013        -6.05203
   C        0.66432         2.47200        -7.76549
   C       -0.25250         3.35776        -8.19836
   C       -1.66761         2.95783        -8.45972
   C       -1.94555         1.49994        -8.30540
   C       -1.01428         0.61999        -7.89263
   C        0.29895         1.05457        -7.59665
   C        1.42777         0.38907        -7.16534
   C        1.66309        -0.96284        -6.81989
   C        2.90223        -1.33974        -6.41872
   C       -2.48452         3.81047        -7.52162
   C       -3.00418         3.36825        -6.37010
   C       -3.74509         4.22647        -5.49460
   N       -3.64090         5.54474        -5.57753
   C       -4.35960         6.03902        -4.54817
   C       -4.95852         4.95734        -3.75502
   C       -5.73873         5.50193        -2.63474
   O       -6.36241         4.90466        -1.78422
   C       -5.56901         6.95907        -2.80999
   C       -4.72137         7.23999        -3.98578
   N       -4.57632         8.57641        -4.16385
   C       -5.27166         9.12628        -3.19623
   C       -5.92219         8.17635        -2.32063
   C       -4.60864         3.78534        -4.37491
   C       -5.02202         2.46451        -4.02533
   C       -5.07737         1.40777        -4.86273
   C       -5.52984         0.11220        -4.45565
   C       -5.57639        -0.97154        -5.24911
   C       -5.12839        -0.97732        -6.67920
   C       -6.10591        -2.28301        -4.73502
   N       -5.16373        -3.34748        -4.99474
   C       -5.57933        -4.65183        -5.12785
   C       -4.81286        -5.71986        -4.93849
   H       12.06318        -0.39902       -10.58750
   H       10.30921        -0.36489       -10.08927
   H       13.43564         1.54985       -10.42774
   H       12.99716         2.54712        -9.03715
   H       12.53885         3.05661       -10.65787
   H       10.10420         3.15946        -9.97043
   H       10.52707         2.65906        -8.33176
   H        8.42220         1.57209       -10.05209
   H        7.67220         0.31572        -8.32373
   H       10.45612         0.79178        -7.10978
   H       10.85002        -4.61312        -1.29416
   H        8.16851        -4.81994        -1.47511
   H        6.51684         0.64892        -6.60444
   H        5.27227        -1.91612        -5.49379
   H        4.59187         1.62731        -6.57359
   H        3.84916         3.65634        -7.03105
   H        3.52116         5.40526        -8.80501
   H        2.05738         4.54487        -9.33298
   H        4.70322         3.32193        -9.25305
   H        3.89260         3.79369       -10.60021
   H        1.86979         4.42590        -5.59199
   H        1.39322         5.43150        -6.97158
   H        3.56695         6.46101        -6.81737
   H        2.93565         6.45524        -5.30759
   H       -0.02811         4.40507        -8.33606
   H       -1.92841         3.26031        -9.48513
   H       -2.95291         1.18698        -8.53712
   H       -1.25165        -0.42964        -7.79182
   H        0.85394        -1.67648        -6.87310
   H        3.09930        -2.36522        -6.14299
   H       -2.62967         4.84547        -7.79601
   H       -2.86702         2.34267        -6.06055
   H       -5.31992        10.19775        -3.10455
   H       -6.53730         8.42383        -1.47807
   H       -5.37864         2.35523        -3.00845
   H       -4.80917         1.52955        -5.90128
   H       -5.85798         0.02604        -3.42752
   H       -4.13486        -0.54458        -6.78183
   H       -5.81586        -0.39766        -7.29585
   H       -5.10154        -1.99721        -7.05364
   H       -7.03075        -2.52444        -5.27281
   H       -6.35291        -2.19600        -3.66558
   H       -4.27128        -3.23519        -4.53363
   H       -6.60049        -4.75325        -5.47260
   H       -3.79557        -5.63430        -4.59688
   H       -5.17902        -6.70911        -5.13482
*
