# ORCA input file
# SCF done       -187.231125398653          0.000968206189
! CAM-B3LYP def2-SVP def2/J RIJCOSX Grid4 TightSCF
%maxcore 5000
%tddft
    Mode sTDDFT
    Ethresh 5.0
    maxcore 5000
end

%pal
  nprocs 6
  end
* xyz 0 1
   C        5.52142       -24.51868        -0.70754
   C        6.41052       -23.64947        -1.21049
   C        7.40603       -23.88984        -2.21271
   C        8.16057       -22.80903        -2.52086
   C        7.82862       -21.63565        -1.79440
   S        6.50849       -21.95937        -0.68985
   C        8.41881       -20.39285        -1.89885
   C        9.47881       -20.00587        -2.74658
   C        9.83941       -18.69572        -2.61624
   C        9.08964       -17.97826        -1.66318
   S        7.89569       -19.03084        -0.92811
   C        9.24307       -16.64553        -1.32463
   C        8.48882       -15.97588        -0.37713
   C        8.65919       -14.64549        -0.03577
   C        7.93106       -13.91581         0.92381
   C        8.32600       -12.61534         1.06248
   C        9.39079       -12.25022         0.21323
   S        9.87277       -13.61619        -0.77223
   C       10.02374       -11.02710         0.11300
   C        9.76037        -9.85143         0.85850
   C       10.56064        -8.80164         0.54843
   C       11.51935        -9.08023        -0.47364
   S       11.33121       -10.75340        -1.02113
   C       12.47940        -8.26922        -0.96515
   C       13.37922        -8.68030        -2.05599
   C       14.71032        -9.07663        -1.89412
   N       15.47693        -9.20996        -0.75249
   C       14.96650        -9.01166         0.57793
   C       14.40215       -10.30374         1.17957
   C       13.81947       -10.05542         2.56353
   C       16.73117        -9.65330        -1.10555
   C       16.78835        -9.77201        -2.51801
   C       15.49063        -9.42718        -3.01848
   C       14.96066        -9.40009        -4.30090
   C       13.64044        -9.03368        -4.45405
   C       12.87112        -8.68510        -3.35018
   C       17.95351       -10.13881        -3.17225
   C       19.08214       -10.38128        -2.41264
   C       19.03948       -10.26743        -1.03403
   C       17.88015        -9.91386        -0.33138
   C       17.91905        -9.86970         1.11269
   C       19.01428        -9.57270         1.84379
   C       19.03198        -9.54710         3.26632
   S       17.55260        -9.61759         4.16914
   C       18.41028        -9.45602         5.65351
   C       19.75164        -9.34809         5.49664
   C       20.67062        -9.22834         6.66623
   C       20.14156        -9.40735         4.11431
   C       21.45554        -9.43121         3.57174
   C       22.65293        -9.15066         4.15744
   C       23.89369        -9.27486         3.48450
   C       24.07350        -9.77285         2.22295
   C       25.33366        -9.88754         1.61998
   C       25.53773       -10.38250         0.35222
   C       26.80796       -10.55656        -0.31443
   C       28.05147       -10.21724         0.16238
   C       29.25140       -10.40703        -0.55151
   N       30.26262       -10.53427        -1.08141
   C       28.32184        -9.62978         1.41446
   N       28.63703        -9.15227         2.41142
   C       26.54819       -11.16490        -1.61734
   C       25.15154       -11.34001        -1.76512
   C       24.46632       -10.84502        -0.55322
   O       23.26229       -10.83133        -0.37551
   C       24.58702       -11.89684        -2.88590
   C       25.44357       -12.30491        -3.91399
   C       26.83758       -12.12668        -3.75832
   C       27.40819       -11.56121        -2.62407
   S       27.71390       -12.70020        -5.14621
   C       26.21450       -13.16815        -5.90284
   C       25.11377       -12.90683        -5.15961
  Br       26.24303       -13.95185        -7.60791
   H        5.49665       -25.53770        -1.05135
   H        4.81424       -24.23133         0.04833
   H        7.51221       -24.86234        -2.65950
   H        8.95100       -22.81112        -3.25039
   H        9.94579       -20.69577        -3.42612
   H       10.62537       -18.22361        -3.17942
   H       10.01750       -16.09522        -1.84477
   H        7.71171       -16.52229         0.14251
   H        7.13580       -14.37139         1.48748
   H        7.87933       -11.91824         1.74850
   H        8.98706        -9.82180         1.60554
   H       10.50964        -7.83184         1.01145
   H       12.53887        -7.24746        -0.61059
   H       14.16336        -8.27391         0.52327
   H       15.75741        -8.59797         1.20950
   H       15.18342       -11.06439         1.23515
   H       13.62676       -10.68765         0.51460
   H       14.58274        -9.67490         3.23958
   H       13.42276       -10.97854         2.97779
   H       13.01067        -9.32958         2.51035
   H       15.56891        -9.66821        -5.15082
   H       13.19223        -9.01257        -5.43578
   H       11.84042        -8.39506        -3.49418
   H       17.97129       -10.22653        -4.24758
   H       20.00720       -10.66835        -2.88856
   H       19.93181       -10.50087        -0.47428
   H       17.02098       -10.12701         1.65279
   H       19.93024        -9.30232         1.34008
   H       17.85687        -9.45754         6.57213
   H       20.10717        -9.33677         7.59029
   H       21.15688        -8.25355         6.67635
   H       21.43557       -10.00233         6.63143
   H       21.49126        -9.72351         2.53279
   H       22.69886        -8.79415         5.17337
   H       24.77391        -8.95620         4.03073
   H       23.22910       -10.11111         1.64440
   H       26.19095        -9.57483         2.20188
   H       23.51809       -12.01816        -2.96622
   H       28.47710       -11.44939        -2.55540
   H       24.11033       -13.12877        -5.47417
*
