# ORCA input file
# SCF done       -211.816807853392          0.000606093452
! CAM-B3LYP def2-SVP def2/J RIJCOSX Grid4 TightSCF
%maxcore 5000
%tddft
    Mode sTDDFT
    Ethresh 5.0
    maxcore 5000
end

%pal
  nprocs 6
  end
* xyz 0 1
   C       -1.41151        -0.78871        -0.73665
   C       -2.21401        -1.57105        -1.52452
   C       -3.53681        -1.23996        -1.87881
   N       -4.62964        -1.03436        -2.16385
   C       -1.77549        -2.76888        -2.12507
   N       -1.45927        -3.72113        -2.68229
   C       -1.69651         0.58852        -0.34138
   C       -0.48911         1.21510         0.01791
   C       -0.44738         2.54114         0.39663
   C       -1.63900         3.25539         0.42995
   C       -2.84517         2.63500         0.08570
   C       -2.88284         1.30158        -0.30703
  Cl       -4.31108         3.52765         0.14641
  Cl       -1.62778         4.90770         0.89856
   C        0.61994         0.23785        -0.07000
   O        1.79790         0.43562         0.11376
   C       -0.03508        -1.06190        -0.37727
   C        0.65872        -2.21713        -0.19714
   C        0.18393        -3.56067        -0.04384
   C       -1.10789        -3.84458         0.43647
   C       -1.49293        -5.14762         0.60965
   C       -0.60722        -6.20200         0.31785
   C        0.67554        -5.93504        -0.14513
   C        1.06371        -4.62338        -0.30566
   C       -1.27700        -7.44954         0.59224
   C       -2.58128        -7.17501         1.04596
   C       -2.80134        -5.68301         1.15261
   C       -2.90564        -5.21323         2.62348
   C       -4.03669        -5.82268         3.44112
   C       -4.00346        -5.21342         0.31927
   C       -3.91659        -5.66322        -1.13463
   C       -3.45681        -8.20222         1.29921
   C       -3.03071        -9.53302         1.16228
   C       -1.71628        -9.78769         0.74521
   C       -0.84575        -8.76100         0.44690
   C       -3.94366       -10.61392         1.44616
   N       -3.50135       -11.88570         1.74535
   C       -4.58227       -12.68020         1.96665
   C       -4.97905       -13.97356         2.30141
   C       -6.37568       -13.96223         2.29823
   N       -6.81928       -12.69535         1.97045
   C       -5.74000       -11.89399         1.77236
   C       -5.33662       -10.59515         1.45603
   C       -7.30095       -15.01292         2.55744
   C       -6.96101       -16.24571         2.98952
   C       -7.85590       -17.34356         3.25451
   C       -9.20045       -17.34923         2.84943
   C       -9.99337       -18.43288         3.13479
   C       -9.47569       -19.53557         3.83678
   C       -8.14532       -19.54960         4.23734
   C       -7.35277       -18.46429         3.93581
   C      -10.53102       -20.50021         4.01837
   C      -11.70377       -20.01459         3.40541
   C      -11.43902       -18.67541         2.75275
   C      -12.37117       -17.58101         3.29395
   C      -12.22199       -17.38137         4.79806
   C      -11.48823       -18.75978         1.20909
   C      -12.84896       -19.06142         0.59649
   C      -12.87562       -20.72427         3.49063
   C      -12.89411       -21.94765         4.18509
   C      -11.72080       -22.40097         4.81555
   C      -10.54119       -21.70043         4.72131
   C      -14.08131       -22.73308         4.34500
   C      -15.12637       -22.88621         3.48198
   C      -16.33951       -23.63367         3.76922
   C      -16.79466       -24.00638         5.00616
   C      -17.99346       -24.71760         5.22528
   N      -18.95112       -25.30209         5.46759
   C      -16.15773       -23.71064         6.23060
   N      -15.71930       -23.49239         7.26927
   C      -17.03986       -23.84832         2.50727
   C      -16.32763       -23.20546         1.48123
   C      -15.11829       -22.55769         2.03627
   O      -14.27769       -21.96242         1.39854
   C      -16.75255       -23.23689         0.16891
   C      -17.92112       -23.92663        -0.12809
   C      -18.63579       -24.57280         0.88674
   C      -18.20314       -24.53889         2.20764
  Cl      -20.07358       -25.43058         0.50374
  Cl      -18.48667       -23.98732        -1.74851
   H        0.48786         3.00961         0.65931
   H       -3.82838         0.85261        -0.56509
   H        1.72961        -2.08007        -0.07687
   H       -1.76875        -3.03347         0.70534
   H        1.35924        -6.74005        -0.36756
   H        2.05602        -4.39588        -0.66636
   H       -3.01779        -4.12649         2.61580
   H       -1.95698        -5.44285         3.11643
   H       -5.00398        -5.63681         2.98227
   H       -4.04378        -5.37422         4.43231
   H       -3.89869        -6.89411         3.55645
   H       -4.05647        -4.12291         0.36145
   H       -4.92044        -5.60818         0.75890
   H       -3.00047        -5.30624        -1.59960
   H       -4.76020        -5.26950        -1.69686
   H       -3.93317        -6.74875        -1.20172
   H       -4.47046        -8.00599         1.60829
   H       -1.38570       -10.80745         0.61119
   H        0.15247        -8.97582         0.09611
   H       -2.53762       -12.14415         1.86235
   H       -4.35663       -14.81959         2.51006
   H       -7.78662       -12.42892         1.90820
   H       -5.95860        -9.75336         1.22803
   H       -8.34246       -14.76261         2.40088
   H       -5.91650       -16.44660         3.18474
   H       -9.60224       -16.50849         2.30486
   H       -7.73837       -20.39640         4.76954
   H       -6.31513       -18.46221         4.23792
   H      -13.40397       -17.85162         3.07275
   H      -12.15002       -16.64397         2.77831
   H      -12.45153       -18.30154         5.33112
   H      -12.90259       -16.60624         5.14309
   H      -11.20604       -17.08495         5.05000
   H      -10.78251       -19.53362         0.89630
   H      -11.12454       -17.80651         0.81676
   H      -13.20632       -20.04152         0.89466
   H      -12.75803       -19.05449        -0.48779
   H      -13.58516       -18.31141         0.87429
   H      -13.79344       -20.33464         3.08398
   H      -11.75266       -23.33053         5.36555
   H       -9.64541       -22.06353         5.20198
   H      -14.11436       -23.31129         5.26181
   H      -16.18948       -22.73732        -0.60354
   H      -18.77590       -25.05346         2.96157
*
