# ORCA input file
# SCF done       -153.588893568847          0.000609100748
! CAM-B3LYP def2-SVP def2/J RIJCOSX Grid4 TightSCF
%maxcore 5000
%tddft
    Mode sTDDFT
    Ethresh 5.0
    maxcore 5000
end

%pal
  nprocs 6
  end
* xyz 0 1
   C       -4.34306         1.77029         2.55866
   C       -4.66411         0.40954         2.33057
   C       -4.36402        -0.53686         3.28378
   C       -3.68925        -0.16435         4.45805
   C       -3.34613         1.20117         4.66815
   C       -3.70415         2.15961         3.69804
   N       -2.69318         1.58208         5.78487
   C       -2.38432         0.64851         6.64342
   C       -2.72134        -0.70602         6.43367
   N       -3.36333        -1.10588         5.37066
   C       -5.34062         0.02594         1.10203
   S       -6.77496        -0.92742         1.17043
   C       -6.98320        -0.90648        -0.55272
   C       -5.95146        -0.17644        -1.16184
   C       -5.00818         0.34061        -0.20948
   C       -3.84615         1.01891        -0.67796
   C       -2.78816         1.39067         0.17903
   N       -1.86708         1.68111         0.79846
   C       -3.69551         1.26147        -2.02836
   C       -4.65542         0.83218        -2.94683
   C       -5.76028         0.10622        -2.53909
   C       -6.65459        -0.31025        -3.54960
   N       -7.33369        -0.60309        -4.42732
   C       -8.05670        -1.57381        -1.17866
   C       -9.13118        -2.10839        -0.53847
   C      -10.16018        -2.79420        -1.21983
   S       -9.96041        -3.23538        -2.88642
   C      -11.55484        -3.90392        -3.01011
   C      -12.20597        -3.85309        -1.77005
   C      -11.42005        -3.20638        -0.75646
   C      -11.96647        -3.04839         0.54365
   C      -11.28719        -2.38477         1.58809
   N      -10.79797        -1.85322         2.47978
   C      -13.21861        -3.56147         0.83293
   C      -13.93869        -4.27342        -0.12473
   C      -13.44862        -4.43671        -1.40840
   C      -14.18691        -5.27798        -2.27000
   N      -14.82336        -6.01328        -2.87809
   C      -11.96194        -4.32162        -4.30226
   C      -13.20113        -4.23783        -4.84760
   C      -13.41506        -4.61293        -6.19393
   S      -14.92860        -4.17890        -7.03476
   C      -14.25542        -4.85737        -8.45574
   C      -12.97788        -5.37418        -8.18687
   N      -12.53765        -5.22077        -6.94889
   C      -12.37133        -5.96890        -9.41636
   C      -13.43919        -5.68050       -10.42842
   C      -14.52656        -5.03542        -9.83062
   S      -15.75282        -4.63248       -10.96223
   C      -14.79893        -5.32779       -12.25975
   C      -13.60291        -5.85145       -11.79636
   C      -15.21871        -5.28318       -13.61577
   C      -16.32097        -4.66529       -14.08029
   C      -16.63765        -4.60932       -15.48921
   N      -15.83466        -5.25280       -16.34587
   C      -16.13569        -5.16641       -17.62633
   C      -17.22345        -4.44425       -18.09102
   C      -18.00871        -3.80298       -17.12602
   N      -17.70688        -3.89814       -15.83409
   C      -19.17198        -3.01009       -17.50714
   C      -19.93619        -2.37789       -16.62553
   H       -4.63369         2.50449         1.82145
   H       -4.61139        -1.57771         3.13940
   H       -3.45583         3.19228         3.88364
   H       -1.85565         0.96261         7.53352
   H       -2.45851        -1.46687         7.15669
   H       -2.81629         1.78052        -2.37918
   H       -4.52350         1.04846        -3.99626
   H       -8.01216        -1.64413        -2.25646
   H       -9.22588        -1.99287         0.53144
   H      -13.62703        -3.43330         1.82404
   H      -14.88563        -4.71896         0.14041
   H      -11.16311        -4.63059        -4.96443
   H      -14.04118        -3.82328        -4.31241
   H      -12.19032        -7.03881        -9.29650
   H      -11.42037        -5.49731        -9.66922
   H      -12.88731        -6.31823       -12.44891
   H      -14.56685        -5.76759       -14.33100
   H      -17.00800        -4.15409       -13.42164
   H      -15.47464        -5.69552       -18.30274
   H      -17.45386        -4.37741       -19.14204
   H      -19.37727        -2.96325       -18.56850
   H      -19.71242        -2.43783       -15.57428
   H      -20.79012        -1.79407       -16.92307
*
