# ORCA input file
# SCF done       -220.142169315919          0.000874076035
! CAM-B3LYP def2-SVP def2/J RIJCOSX Grid4 TightSCF
%maxcore 5000
%tddft
    Mode sTDDFT
    Ethresh 5.0
    maxcore 5000
end

%pal
  nprocs 6
  end
* xyz 0 1
   C       15.55569        15.85871        -2.36727
   C       15.48663        16.57012        -3.53270
   F       16.16741        17.72415        -3.64511
   C       14.72723        16.14233        -4.63069
   C       14.02843        14.97125        -4.53613
   C       14.06421        14.19698        -3.35804
   C       14.84129        14.65036        -2.25178
   C       14.88756        13.89515        -1.05711
   C       14.18216        12.72482        -0.97605
   C       13.41886        12.26815        -2.09044
   C       13.35188        12.98161        -3.25267
   C       12.79254        10.97230        -1.76154
   O       12.03999        10.31352        -2.43850
   C       13.34796        10.60711        -0.42633
   C       14.02142        11.77078         0.11597
   C       14.24995        12.02008         1.44310
   C       13.81283        11.17300         2.48424
   N       13.41723        10.55931         3.36974
   C       14.85101        13.20249         1.92231
   N       15.34723        14.14524         2.34868
   C       13.28166         9.33270         0.03531
   C       14.08729         8.77174         1.06264
   C       15.47744         9.13091         1.36875
   N       16.00397         8.44432         2.34006
   C       15.02164         7.60644         2.77211
   C       13.81657         7.75636         1.95192
   C       12.76438         6.89919         2.44403
   S       11.24210         6.80661         1.82945
   C       13.35332         6.21819         3.57017
   C       14.74143         6.68470         3.75020
   N       15.30971         6.10853         4.84378
   C       14.37588         5.36797         5.36766
   C       13.10524         5.37914         4.63850
   C       11.95196         4.61691         5.02579
   C       11.77951         4.25454         6.34996
   C       10.65947         3.50097         6.72908
   C       10.26839         3.01776         7.97748
   C       10.98402         3.23755         9.26076
   C       10.07928         3.81970        10.36297
   N       10.89974         4.22641        11.49020
   C       11.66599         1.94183         9.75097
   N       12.78418         1.62090         8.88400
   C        9.06980         2.23987         7.76022
   C        8.31887         1.49300         8.59222
   C        7.12640         0.73874         8.11025
   C        6.82813         0.89877         6.65813
   C        7.59720         1.63465         5.83307
   C        8.73298         2.31490         6.33095
   C        9.70460         3.08432         5.71571
   C        9.89953         3.47767         4.37358
   C       10.98693         4.22427         4.04590
   C        5.96625         1.05634         9.02201
   C        4.81672         1.60815         8.62471
   C        3.70707         1.86442         9.49246
   C        3.66744         1.82925        10.95916
   N        2.49459         2.06820        11.47106
   C        1.66331         2.25942        10.40568
   C        2.41618         2.18119         9.14789
   C        1.52881         2.35700         8.02582
   S        1.96918         2.41171         6.43524
   C        0.22284         2.45043         8.61087
   C        0.34245         2.43779        10.08687
   N       -0.87620         2.55652        10.67398
   C       -1.73001         2.62270         9.69711
   C       -1.14134         2.51317         8.35524
   C       -1.96478         2.53740         7.21165
   C       -1.79200         2.15183         5.91168
   C       -2.78677         2.66025         4.91150
   O       -3.83180         3.21298         5.16388
   C       -2.19958         2.37220         3.59355
   C       -2.65339         2.71902         2.35392
   C       -1.89914         2.35057         1.21709
   C       -0.68081         1.63150         1.39170
   C        0.06926         1.27407         0.25502
   C       -0.38685         1.62027        -0.98694
   C       -1.58233         2.32544        -1.17921
   C       -2.32230         2.68216        -0.08600
   F        0.32807         1.27715        -2.07348
   C       -0.23935         1.27885         2.68928
   C       -0.99190         1.63815         3.77380
   C       -0.80336         1.39434         5.20135
   C        0.09269         0.49742         5.74097
   C        0.02265         0.04745         7.07313
   N       -0.01499        -0.36029         8.14560
   C        1.03392        -0.24237         4.99094
   N        1.83076        -0.86599         4.44991
   H       16.14791        16.21975        -1.54097
   H       14.71132        16.74551        -5.52453
   H       13.43672        14.62130        -5.36853
   H       15.48938        14.25555        -0.23769
   H       12.76281        12.62221        -4.08309
   H       12.59077         8.66596        -0.47086
   H       16.06605         9.84778         0.82230
   H       14.58603         4.77486         6.24063
   H       12.49286         4.56778         7.09625
   H       11.78166         3.96724         9.08571
   H        9.38504         3.05932        10.72477
   H        9.48557         4.64184         9.92962
   H       10.31996         4.51980        12.26786
   H       11.49219         5.00958        11.23414
   H       10.95817         1.11158         9.70390
   H       11.95006         2.10478        10.80169
   H       13.54174         2.28098         9.02279
   H       13.13992         0.69335         9.08096
   H        8.54492         1.40087         9.64484
   H        7.34585        -0.33142         8.28047
   H        5.96879         0.36142         6.28750
   H        7.36146         1.70964         4.78208
   H        9.18864         3.17832         3.61853
   H       11.15132         4.52582         3.02431
   H        6.12208         0.80121        10.06135
   H        4.65726         1.85463         7.58382
   H        4.51142         1.66034        11.60447
   H       -2.78339         2.73026         9.89076
   H       -2.93977         2.99065         7.38702
   H       -3.57520         3.26976         2.24068
   H        0.99389         0.72922         0.36477
   H       -1.89187         2.57125        -2.18259
   H       -3.24675         3.22627        -0.20833
   H        0.69017         0.74203         2.79185
*
