# ORCA input file
# SCF done       -226.665071805293          0.000653059975
! CAM-B3LYP def2-SVP def2/J RIJCOSX Grid4 TightSCF
%maxcore 5000
%tddft
    Mode sTDDFT
    Ethresh 5.0
    maxcore 5000
end

%pal
  nprocs 6
  end
* xyz 0 1
   C       -1.19012        -2.43623         8.21510
   C       -1.00987        -3.01348         9.44020
   F       -0.44165        -2.32015        10.43441
   C       -1.41848        -4.34281         9.67466
   F       -1.22869        -4.88147        10.88558
   C       -2.00236        -5.07600         8.68008
   C       -2.20269        -4.50915         7.40614
   C       -1.78935        -3.16577         7.16756
   C       -1.97835        -2.57638         5.89804
   C       -2.56676        -3.30610         4.89611
   C       -2.98244        -4.64246         5.14569
   C       -2.80620        -5.24107         6.36018
   C       -3.59156        -5.21629         3.92576
   O       -3.95131        -6.35493         3.77617
   C       -3.59782        -4.09746         2.92922
   C       -2.88490        -2.96565         3.51357
   C       -2.54899        -1.79238         2.89484
   C       -1.85145        -0.73741         3.52538
   N       -1.28719         0.15616         3.97212
   C       -2.81303        -1.44942         1.55006
   N       -2.97786        -1.08250         0.47502
   C       -4.17424        -4.10308         1.70278
   C       -4.97200        -5.11724         1.09942
   O       -5.35091        -4.87336        -0.20224
   C       -6.12029        -5.92040        -0.54201
   C       -6.18811        -6.78559         0.59735
   N       -5.44790        -6.22049         1.58746
   C       -6.91655        -7.96693         0.58680
   C       -7.56744        -8.22928        -0.60621
   C       -7.48691        -7.34570        -1.72875
   C       -6.76254        -6.17033        -1.73889
   O       -8.23509        -7.87451        -2.71146
   C       -8.74062        -9.02676        -2.18909
   N       -8.37363        -9.27303        -0.96558
   C       -9.61026        -9.79713        -3.01768
   N      -10.15023       -11.00669        -2.67645
   C       -9.98089       -11.71295        -1.42909
   C      -10.91832       -11.17798        -0.35151
   C      -10.98625       -11.50192        -3.69802
   O      -11.57428       -12.56064        -3.62848
   C      -10.92380       -10.49296        -4.73343
   C      -10.05896        -9.45914        -4.28512
   C       -9.99227        -8.44389        -5.31857
   O       -9.39646        -7.39601        -5.40760
   N      -10.83403        -8.94621        -6.33667
   C      -11.07363        -8.18536        -7.53908
   C      -12.39162        -7.41740        -7.47278
   C      -11.39901       -10.15134        -5.99577
   C      -12.30596       -10.85576        -6.83353
   C      -12.87016       -12.03773        -6.49175
   C      -13.80080       -12.70124        -7.34269
   O      -14.16575       -12.12860        -8.54092
   C      -15.05498       -12.98695        -9.07603
   C      -15.19895       -14.07956        -8.16392
   N      -14.38232       -13.83481        -7.09829
   C      -16.05062       -15.14125        -8.41751
   C      -16.74442       -15.05100        -9.61479
   C      -16.58270       -13.94822       -10.50816
   C      -15.73592       -12.88246       -10.27159
   O      -17.39078       -14.16130       -11.56372
   C      -18.02131       -15.34145       -11.29112
   N      -17.66367       -15.89211       -10.16774
   C      -18.91908       -15.86436       -12.26563
   C      -19.71631       -16.94973       -12.14792
   C      -20.27675       -17.58937       -13.37961
   O      -20.35797       -17.09324       -14.47632
   C      -20.63392       -18.95884       -12.96497
   C      -21.06829       -19.99855       -13.73738
   C      -21.32063       -21.24762       -13.12892
   C      -21.11048       -21.39783       -11.72660
   C      -21.35480       -22.65062       -11.12820
   C      -21.78981       -23.70234       -11.88459
   C      -21.99984       -23.55161       -13.27086
   C      -21.77069       -22.35061       -13.88114
   F      -22.42621       -24.59983       -13.98650
   F      -22.02154       -24.89104       -11.31499
   C      -20.66827       -20.30225       -10.95086
   C      -20.44041       -19.09634       -11.55936
   C      -20.03075       -17.80430       -11.01542
   C      -20.15150       -17.41174        -9.71415
   C      -20.05135       -16.07017        -9.28179
   N      -20.10409       -14.99334        -8.88965
   C      -20.52088       -18.28508        -8.66865
   N      -20.80724       -18.96492        -7.79011
   H       -0.87102        -1.41861         8.05225
   H       -2.30950        -6.09148         8.87516
   H       -1.65485        -1.55876         5.75220
   H       -3.12816        -6.25899         6.51853
   H       -4.06772        -3.23698         1.06202
   H       -6.96818        -8.61917         1.43990
   H       -6.71346        -5.51767        -2.59260
   H       -8.94418       -11.61148        -1.10488
   H      -10.21221       -12.76062        -1.63902
   H      -10.67510       -10.14364        -0.12480
   H      -10.80624       -11.76828         0.55286
   H      -11.95114       -11.24180        -0.68535
   H      -11.05208        -8.85199        -8.40535
   H      -10.24316        -7.47801        -7.61817
   H      -13.23436        -8.09454        -7.35208
   H      -12.52975        -6.84471        -8.38564
   H      -12.37688        -6.72987        -6.63078
   H      -12.55724       -10.41281        -7.78714
   H      -12.65176       -12.53124        -5.55529
   H      -16.17135       -15.96319        -7.73518
   H      -15.62487       -12.05421       -10.94950
   H      -18.88793       -15.37566       -13.23241
   H      -21.21561       -19.86920       -14.79878
   H      -21.20274       -22.78237       -10.06838
   H      -21.93577       -22.25137       -14.94252
   H      -20.51024       -20.44418        -9.89376
*
