# ORCA input file
# SCF done       -205.588443110146          0.000516753349
! CAM-B3LYP def2-SVP def2/J RIJCOSX Grid4 TightSCF
%maxcore 5000
%tddft
    Mode sTDDFT
    Ethresh 5.0
    maxcore 5000
end

%pal
  nprocs 6
  end
* xyz 0 1
   C       -2.10160        -6.97374        -8.48193
   C       -1.01123        -6.96357        -9.31577
   C       -1.09300        -6.91286       -10.72277
   N       -1.08370        -6.87029       -11.87022
   C        0.33866        -7.00274        -8.90977
   N        1.46157        -7.03378        -8.66816
   C       -3.49717        -6.94297        -8.92319
   C       -4.33097        -6.97612        -7.79199
   C       -5.70579        -6.95874        -7.89671
   C       -6.26726        -6.90511        -9.16703
   C       -5.44727        -6.87001       -10.29841
   C       -4.06029        -6.88920       -10.18664
  Cl       -6.15330        -6.80142       -11.86314
  Cl       -7.97596        -6.88174        -9.34243
   C       -3.49637        -7.02784        -6.57396
   O       -3.90028        -7.06176        -5.42428
   C       -2.10923        -7.01825        -7.03730
   C       -0.99987        -7.01448        -6.22103
   C       -0.91089        -7.03546        -4.83041
   C        0.30397        -6.94814        -4.14483
   C        0.21796        -6.95633        -2.73635
   C        1.52032        -6.76287        -2.18024
   C        2.51992        -6.65574        -3.09121
   S        1.91733        -6.77088        -4.73086
   C        3.96786        -6.45633        -2.82946
   F        1.77623        -6.65492        -0.86327
   C       -1.10608        -7.08097        -2.30069
   S       -2.20116        -7.14492        -3.65109
   C       -1.64153        -7.13997        -0.96894
   C       -2.95172        -6.76712        -0.75060
   C       -3.47443        -6.74910         0.55450
   C       -4.72461        -6.37613         1.02876
   C       -5.89654        -5.96501         0.20418
   C       -7.11219        -6.87947         0.45318
   N       -7.96376        -6.87097        -0.71835
   C       -6.23628        -4.48017         0.42782
   N       -7.22795        -4.03005        -0.53682
   C       -4.66363        -6.47141         2.46970
   C       -5.56222        -6.17530         3.42594
   C       -5.23115        -6.29171         4.87789
   C       -3.87327        -6.84029         5.16903
   C       -2.98592        -7.13356         4.20175
   C       -3.32237        -6.95339         2.83829
   C       -2.61335        -7.12535         1.66947
   C       -1.29929        -7.57861         1.40481
   C       -0.83612        -7.59127         0.13137
   C       -6.35747        -7.00204         5.57514
   C       -6.24581        -8.13515         6.27407
   C       -7.34824        -8.75716         6.93962
   C       -7.28700        -9.85021         7.78205
   C       -8.52933       -10.23293         8.32769
   C       -8.37464       -11.35267         9.18326
   C       -7.09439       -11.80171         9.30413
   S       -5.98396       -10.85395         8.34426
   C       -6.61426       -12.94140        10.12271
   F       -9.40119       -11.94429         9.81356
   C       -9.59564        -9.42533         7.89590
   S       -8.99037        -8.21453         6.77829
   C      -10.90470        -9.56079         8.36099
   C      -12.04519        -8.89789         7.97030
   C      -13.36596        -9.08470         8.53418
   C      -13.67862        -9.68655         9.72437
   C      -14.99392        -9.82212        10.21647
   N      -16.03852        -9.97007        10.66827
   C      -12.73976       -10.18985        10.65136
   N      -12.03869       -10.58056        11.47210
   C      -14.31605        -8.41745         7.64468
   C      -13.59723        -7.75486         6.63394
   C      -12.15278        -7.99348         6.82541
   O      -11.24886        -7.53331         6.14837
   C      -14.22948        -7.02256         5.65064
   C      -15.61721        -6.95368         5.67172
   C      -16.34119        -7.61332         6.67041
   C      -15.69825        -8.34626         7.66330
  Cl      -18.05603        -7.52511         6.68041
  Cl      -16.44315        -6.05526         4.46338
   H       -6.32633        -6.98688        -7.01507
   H       -3.46243        -6.86072       -11.08255
   H       -0.03034        -6.97454        -6.70428
   H        4.14183        -6.38057        -1.75857
   H        4.32123        -5.54664        -3.31353
   H        4.54511        -7.29130        -3.22560
   H       -3.56394        -6.44925        -1.58191
   H       -5.63680        -6.09037        -0.85158
   H       -7.62976        -6.56108         1.37325
   H       -6.75912        -7.90497         0.60742
   H       -8.27468        -5.91907        -0.89081
   H       -8.77731        -7.45838        -0.57396
   H       -5.29638        -3.90247         0.38328
   H       -6.66135        -4.34066         1.42541
   H       -6.84720        -4.08913        -1.47635
   H       -7.47450        -3.06137        -0.36315
   H       -6.55900        -5.83013         3.19376
   H       -5.25198        -5.25673         5.26875
   H       -3.62036        -6.95045         6.21241
   H       -2.00227        -7.50384         4.45103
   H       -0.67792        -7.91861         2.21964
   H        0.14842        -7.97279        -0.07431
   H       -7.32971        -6.53582         5.47840
   H       -5.29139        -8.63159         6.38821
   H       -7.45097       -13.39059        10.65267
   H       -5.87317       -12.60471        10.84715
   H       -6.14486       -13.69547         9.49124
   H      -11.01959       -10.31815         9.12732
   H      -13.66027        -6.51863         4.88577
   H      -16.28896        -8.84326         8.41520
*
