# ORCA input file
# SCF done       -172.146513537552          0.000646742782
! CAM-B3LYP def2-SVP def2/J RIJCOSX Grid4 TightSCF
%maxcore 5000
%tddft
    Mode sTDDFT
    Ethresh 5.0
    maxcore 5000
end

%pal
  nprocs 6
  end
* xyz 0 1
   C        8.14506         7.39268        -1.04090
   C        8.81837         8.35210        -0.37145
   C        9.96387         8.06458         0.54760
   O        9.94466         7.23045         1.41492
   O       10.99252         8.88574         0.31664
   C       12.11296         8.73386         1.17629
   C        8.41616         9.70106        -0.41355
   N        8.09433        10.80179        -0.44413
   C        8.55896         6.00890        -1.10687
   C        9.91867         5.67062        -1.14421
   C       10.28697         4.34864        -1.13360
   C        9.30726         3.34167        -1.04869
   C        7.95769         3.66670        -1.06742
   C        7.59310         4.99692        -1.11967
   C        9.97103         2.06429        -0.91783
   C       11.35995         2.28093        -0.92040
   C       11.67156         3.74512        -1.15087
   C       12.58198         4.33148        -0.06273
   C       11.95376         4.26640         1.32508
   C       12.32286         3.84642        -2.55192
   C       12.49262         5.25451        -3.10728
   C       12.22815         1.22883        -0.77854
   C       11.73168        -0.07913        -0.62915
   C       10.34079        -0.27425        -0.62629
   C        9.46417         0.77991        -0.76773
   C       12.67306        -1.15700        -0.50583
   C       12.39374        -2.48248        -0.42338
   C       13.38946        -3.47825        -0.35788
   C       13.14129        -4.82269        -0.32607
   C       14.10369        -5.86718        -0.32273
   C       13.57702        -7.11820        -0.34037
   C       12.15935        -7.14809        -0.34530
   S       11.52208        -5.51430        -0.32013
   C       11.34263        -8.25201        -0.38451
   C       11.73564        -9.61403        -0.48465
   C       10.70675       -10.48978        -0.55069
   C        9.41227        -9.88383        -0.49264
   S        9.59145        -8.12425        -0.35270
   C        8.21357       -10.49925        -0.56119
   C        6.92963        -9.79129        -0.53083
   C        6.37491        -9.13691         0.57735
   N        6.75150        -9.10566         1.90734
   C        7.97291        -9.64865         2.45053
   C        7.95831       -11.17072         2.56008
   C        5.85185        -8.32847         2.60154
   C        4.88890        -7.81327         1.69972
   C        5.18754        -8.38103         0.41893
   C        4.53117        -8.29835        -0.80030
   C        5.04678        -9.00075        -1.86926
   C        6.21830        -9.73149        -1.72681
   C        3.92589        -6.90342         2.10939
   C        3.94682        -6.47012         3.42066
   C        4.87137        -6.98703         4.31601
   C        5.80062        -7.96414         3.95524
   C        6.54241        -8.58896         5.04428
   C        6.45904        -9.90497         5.32695
   C        7.11378       -10.48590         6.44697
   C        7.07845       -11.78320         6.85665
   C        6.35620       -12.92597         6.25128
   O        6.12822       -13.95610         6.83388
   O        5.98372       -12.71784         4.97330
   C        5.29618       -13.79644         4.35563
   C        7.78528       -12.11651         8.03599
   N        8.38344       -12.35318         8.98494
   H        7.23356         7.66460        -1.56024
   H       12.84780         9.46406         0.84822
   H       12.51321         7.71996         1.10121
   H       11.82228         8.91859         2.21221
   H       10.65886         6.45494        -1.19334
   H        7.20481         2.89397        -1.02912
   H        6.54803         5.27086        -1.11558
   H       12.80793         5.37143        -0.30454
   H       13.52416         3.77828        -0.06461
   H       11.07627         4.90638         1.38557
   H       12.66911         4.59705         2.07532
   H       11.65473         3.24756         1.56200
   H       11.70920         3.26945        -3.24899
   H       13.30082         3.36264        -2.49699
   H       11.52768         5.72842        -3.26653
   H       13.00513         5.20323        -4.06571
   H       13.08684         5.87735        -2.44362
   H       13.29728         1.38866        -0.78122
   H        9.94600        -1.27113        -0.50830
   H        8.39815         0.60751        -0.76105
   H       13.71643        -0.86313        -0.50164
   H       11.37006        -2.83140        -0.42662
   H       14.42574        -3.16507        -0.35676
   H       15.15753        -5.64994        -0.31749
   H       14.16150        -8.02078        -0.34736
   H       12.77286        -9.89635        -0.51802
   H       10.81235       -11.55676        -0.63726
   H        8.19517       -11.55871        -0.78539
   H        8.12296        -9.20583         3.43717
   H        8.80766        -9.33803         1.81783
   H        7.18957       -11.50868         3.24709
   H        8.92267       -11.51500         2.92474
   H        7.77691       -11.61760         1.58665
   H        3.63134        -7.71102        -0.89752
   H        4.55023        -8.97800        -2.82739
   H        6.62290       -10.25154        -2.58340
   H        3.19593        -6.52765         1.40945
   H        3.23221        -5.73733         3.76285
   H        4.84182        -6.66933         5.34833
   H        7.06973        -7.92604         5.72190
   H        5.85948       -10.54054         4.69512
   H        7.69585        -9.80457         7.06001
   H        5.01746       -13.45062         3.36313
   H        4.40988       -14.06243         4.93473
   H        5.94663       -14.67079         4.28924
*
