# ORCA input file
# SCF done       -199.229799508705          0.000930414635
! CAM-B3LYP def2-SVP def2/J RIJCOSX Grid4 TightSCF
%maxcore 5000
%tddft
    Mode sTDDFT
    Ethresh 5.0
    maxcore 5000
end

%pal
  nprocs 6
  end
* xyz 0 1
   C        5.63585        -4.49183        -3.40220
   O        5.78753        -3.50612        -2.52064
   C        6.70884        -2.63585        -2.99230
   C        7.16207        -3.08854        -4.22243
   C        6.45690        -4.30224        -4.48517
   C        6.56003        -5.14911        -5.60537
   N        6.62443        -5.85554        -6.50332
   C        8.18143        -2.47225        -5.11208
   F        9.37123        -2.31506        -4.49585
   F        8.41595        -3.19103        -6.20951
   F        7.82179        -1.24087        -5.53075
   C        7.00005        -1.51517        -2.15239
   C        7.84065        -0.49501        -2.41988
   C        8.10499         0.58044        -1.52125
   S        9.22546         1.82566        -1.98822
   C        9.04231         2.65422        -0.47695
   C        8.12959         1.97339         0.34034
   C        7.61025         0.81421        -0.25477
   C        7.74008         2.36966         1.63065
   N        7.39376         2.65071         2.68865
   C        9.79522         3.82935        -0.24132
   C        9.79829         4.53665         0.92067
   C       10.60482         5.68437         1.10690
   N       10.65764         6.39039         2.28366
   C        9.95962         6.08279         3.51001
   C       10.64912         4.96546         4.28804
   C       11.55494         7.47043         2.21041
   O       11.74314         8.25257         3.11758
   C       12.09047         7.39883         0.86464
   C       11.47387         6.30810         0.20813
   C       11.97684         6.26357        -1.14792
   O       11.74804         5.51036        -2.07460
   N       12.87510         7.34009        -1.22092
   C       13.54844         7.67418        -2.45376
   C       12.91195         8.87966        -3.14133
   C       12.96326         8.01732        -0.02822
   C       13.83288         9.11732         0.19464
   C       14.00332         9.65295         1.42588
   C       14.85502        10.75602         1.75549
   C       15.12149        11.89754         0.97185
   C       14.60611        12.25678        -0.36949
   O       13.85289        11.68615        -1.09826
   O       15.15449        13.46790        -0.70859
   C       15.96182        13.94634         0.28961
   O       16.55063        14.97689         0.17802
   C       15.92301        12.96289         1.40231
   C       16.57054        12.98824         2.65163
   C       16.31238        11.83792         3.42263
   C       15.49875        10.79630         3.00789
   C       15.52290         9.76340         4.07468
   O       15.04524         8.67448         4.10268
   O       16.28383        10.26927         5.10447
   C       16.78208        11.50808         4.79437
   O       17.44572        12.14682         5.54911
   C       17.45991        13.99402         3.16747
   C       17.42028        15.31588         2.90857
   C       18.34767        16.25361         3.45152
   O       18.09397        17.56837         3.29973
   C       19.08626        18.27480         3.86212
   C       20.02364        17.40583         4.39568
   C       19.55395        16.09220         4.13320
   C       20.20568        14.88568         4.43810
   N       20.75982        13.90836         4.66311
   C       21.27443        17.80647         5.09632
   F       21.02211        18.59611         6.15927
   F       21.98563        16.77310         5.54421
   F       22.08953        18.52389         4.29716
   C       19.07137        19.71452         3.84829
   C       18.10515        20.42729         3.27425
   H        4.93496        -5.27214        -3.18039
   H        6.46024        -1.54222        -1.21641
   H        8.37522        -0.44537        -3.35468
   H        6.89969         0.17819         0.24161
   H       10.42148         4.15997        -1.06077
   H        9.18182         4.21998         1.74753
   H        8.92301         5.81774         3.28674
   H        9.97097         7.00197         4.10207
   H       10.67744         4.04568         3.70809
   H       10.10857         4.77669         5.21084
   H       11.66776         5.25661         4.53261
   H       13.45475         6.79191        -3.09349
   H       14.60887         7.85333        -2.25525
   H       11.86289         8.67868        -3.34452
   H       13.41658         9.06790        -4.08486
   H       12.98238         9.77220        -2.52448
   H       14.39264         9.48817        -0.64891
   H       13.50816         9.19218         2.27246
   H       18.18146        13.62279         3.88307
   H       16.65630        15.75361         2.28450
   H       19.90860        20.18962         4.33745
   H       17.27507        19.95197         2.77962
   H       18.12685        21.50205         3.27666
*
