# ORCA input file
# SCF done       -212.031555420416          0.000766804411
! CAM-B3LYP def2-SVP def2/J RIJCOSX Grid4 TightSCF
%maxcore 5000
%tddft
    Mode sTDDFT
    Ethresh 5.0
    maxcore 5000
end

%pal
  nprocs 6
  end
* xyz 0 1
   C        3.86310        11.55466        -2.25480
   C        2.61379        12.09019        -2.10732
   F        2.13463        12.92098        -3.04893
   C        1.79972        11.80607        -1.00175
   C        2.26869        10.96245        -0.03383
   C        3.54962        10.38126        -0.13526
   C        4.36352        10.68516        -1.26614
   C        5.65565        10.12341        -1.38511
   C        6.11556         9.28433        -0.40577
   C        5.29023         8.96983         0.71385
   C        4.04133         9.50353         0.85595
   C        5.99792         8.02231         1.59374
   O        5.63816         7.57090         2.65598
   C        7.25211         7.67847         0.86389
   C        7.39555         8.60276        -0.24595
   C        8.56712         8.94434        -0.86533
   C        9.82503         8.43139        -0.48693
   N       10.87324         8.08191        -0.17565
   C        8.66012         9.91446        -1.88515
   N        8.77801        10.68448        -2.72749
   C        7.97865         6.59578         1.22966
   C        8.95888         5.90738         0.44920
   C        8.87967         5.63205        -0.88463
   C        9.98190         4.76737        -1.24464
   C       10.23181         4.30706        -2.54431
   N       10.42303         3.92321        -3.60882
   C       10.71704         4.48904        -0.12339
   C       10.13205         5.19182         0.98350
   C       10.63212         5.32377         2.25373
   C       11.68810         4.49724         2.90097
   C       12.03390         5.13043         4.06626
   C       11.21850         6.30679         4.21050
   C       10.34713         6.39662         3.14964
   C       11.31619         7.20056         5.28675
   N       11.40700         7.91490         6.18029
   C       12.11184         3.23096         2.43400
   C       13.16478         2.52515         2.93377
   C       13.57158         1.27168         2.42911
   S       12.95364         0.69369         0.90364
   C       14.03121        -0.64342         0.93036
   C       14.82822        -0.67470         2.02863
   C       15.83652        -1.74396         2.28458
   C       14.56005         0.40762         2.92741
   C       15.21664         0.51245         4.18696
   C       14.73091         1.11702         5.30542
   C       15.39840         1.18896         6.55547
   C       16.71193         0.89573         6.77993
   C       17.36944         0.93422         8.03209
   C       18.71666         1.12701         8.20554
   C       18.97264         1.33385         9.60178
   C       20.24701         1.54274        10.14842
   N       21.29587         1.71700        10.58007
   C       17.78360         1.28806        10.30121
   C       16.74659         0.95858         9.38437
   C       15.48267         0.51951         9.70670
   C       14.72288         0.78586        10.94371
   C       13.58853         0.01329        10.89630
   C       13.59726        -0.75172         9.67774
   C       14.71304        -0.42196         8.94708
   C       12.60915        -1.67168         9.30110
   N       11.79644        -2.41381         8.97525
   C       15.04744         1.78608        11.89748
   C       14.41251         1.95558        13.08866
   C       14.76916         2.98148        13.98912
   C       14.28507         3.18947        15.24763
   C       14.44957         4.52478        15.88598
   O       15.19880         5.40625        15.53250
   C       13.46572         4.55079        16.98470
   C       13.12218         5.58605        17.80530
   C       12.10927         5.39334        18.77113
   C       11.46440         4.12531        18.86292
   C       10.44563         3.94422        19.81831
   C       10.10093         4.98363        20.63693
   C       10.72558         6.23634        20.56497
   C       11.71547         6.42987        19.64212
   F        9.12767         4.81281        21.54940
   C       11.84822         3.06691        18.00638
   C       12.83944         3.27441        17.08602
   C       13.45465         2.37815        16.10891
   C       13.41444         1.00839        16.15728
   C       14.24003         0.16297        15.38661
   N       14.91722        -0.56892        14.81792
   C       12.61931         0.28133        17.06749
   N       11.97335        -0.35650        17.76974
   H        4.46362        11.79859        -3.11717
   H        0.82284        12.25866        -0.93953
   H        1.66010        10.72862         0.82663
   H        6.24793        10.36351        -2.25403
   H        3.43557         9.25874         1.71555
   H        7.71450         6.15207         2.18524
   H        8.11182         5.94796        -1.56730
   H       11.64226         3.94716        -0.10717
   H       12.75250         4.81005         4.79657
   H        9.66285         7.20200         2.96607
   H       11.52938         2.77565         1.64514
   H       13.76449         2.94965         3.72541
   H       14.01017        -1.34278         0.11751
   H       15.83682        -2.46245         1.46961
   H       15.60966        -2.26871         3.21169
   H       16.83513        -1.31601         2.36802
   H       16.15997        -0.01200         4.25371
   H       13.72648         1.51657         5.28662
   H       14.80102         1.53850         7.38706
   H       17.35824         0.69615         5.93454
   H       19.46481         1.17684         7.43675
   H       17.69316         1.32140        11.36971
   H       12.79521        -0.02374        11.61818
   H       15.02330        -0.88243         8.02912
   H       15.86077         2.45600        11.65318
   H       13.60292         1.29407        13.35595
   H       15.44702         3.74771        13.62589
   H       13.61549         6.54239        17.71699
   H        9.94556         2.99217        19.90447
   H       10.41175         7.01878        21.23752
   H       12.21094         7.38614        19.56716
   H       11.33842         2.12043        18.09346
*
