# ORCA input file
# SCF done       -177.709578363991          0.000999945709
! CAM-B3LYP def2-SVP def2/J RIJCOSX Grid4 TightSCF
%maxcore 5000
%tddft
    Mode sTDDFT
    Ethresh 5.0
    maxcore 5000
end

%pal
  nprocs 6
  end
* xyz 0 1
   C       -3.49588         2.11839        -4.65667
   C       -3.96373         1.08359        -5.42464
   C       -3.54177         0.82556        -6.74357
   N       -3.22624         0.57622        -7.81873
   C       -4.87352         0.12034        -4.94155
   N       -5.57330        -0.71109        -4.57096
   C       -2.44247         3.05985        -5.00709
   C       -2.11109         3.81797        -3.85462
   C       -1.14485         4.79424        -3.86835
   C       -0.47720         5.03558        -5.07339
   C       -0.81936         4.27723        -6.21875
   C       -1.79489         3.28683        -6.20574
   S        0.12401         4.75605        -7.59412
   C        0.95270         5.94017        -6.64436
   C        0.54785         5.98172        -5.35619
   C       -2.96204         3.39971        -2.72402
   O       -2.95573         3.84959        -1.59735
   C       -3.88918         2.38907        -3.29199
   C       -5.06973         2.04069        -2.69519
   C       -5.39390         2.30242        -1.34462
   C       -4.63644         2.20797        -0.16991
   O       -3.49443         1.54633         0.04709
   C       -2.97166         0.67228        -0.92168
   C       -5.29098         2.78220         0.93205
   C       -6.54414         3.27855         0.64110
   S       -6.97440         2.99084        -1.01519
   C       -7.42592         3.96392         1.52129
   C       -8.69386         4.40558         1.07896
   C       -9.59532         5.16846         1.90657
   N      -10.69384         5.70174         1.35945
   C      -10.99691         5.42950         0.11695
   C      -10.17746         4.54675        -0.66512
   N       -9.05233         4.09664        -0.17329
   C      -10.57185         4.17612        -1.97402
   N      -10.92813         3.91262        -3.03015
   C      -12.15719         6.01893        -0.44433
   N      -13.09949         6.47310        -0.91092
   C       -9.29919         5.43391         3.26264
   C       -8.02385         5.01037         3.69929
   C       -7.10507         4.28009         2.85932
   N       -5.98547         3.97290         3.51893
   S       -6.07516         4.52985         5.01795
   N       -7.52710         5.20047         4.92359
   C      -10.18197         6.07609         4.17518
   C      -11.58536         6.10569         4.22394
   O      -12.31755         5.46494         3.30376
   C      -13.72258         5.49117         3.44047
   C      -12.06760         6.78647         5.35138
   C      -11.07086         7.23681         6.19460
   S       -9.50099         6.86682         5.55414
   C      -11.22302         7.93063         7.42425
   C      -10.32981         7.97961         8.44652
   C       -9.12966         7.20257         8.70266
   C       -8.94997         5.87713         8.40659
   C       -7.76394         5.16196         8.65484
   N       -6.80387         4.54487         8.78301
   C       -9.96271         5.07670         7.83607
   N      -10.78893         4.38936         7.43297
   C       -8.27935         8.00450         9.56891
   C       -9.03189         9.11053        10.04643
   C      -10.37815         9.08756         9.44259
   O      -11.30497         9.83443         9.65295
   C       -8.50819        10.02589        10.92793
   C       -7.18608         9.84814        11.34761
   C       -6.44287         8.74686        10.85601
   C       -6.97212         7.81466         9.97191
   S       -4.83339         8.73522        11.50344
   C       -5.16200        10.16978        12.41189
   C       -6.41562        10.64351        12.24211
   H       -0.91225         5.35545        -2.97656
   H       -2.02985         2.73908        -7.10349
   H        1.70338         6.54263        -7.11783
   H        0.94942         6.65438        -4.62003
   H       -5.87995         1.67376        -3.31551
   H       -2.30913        -0.00313        -0.38056
   H       -2.39303         1.20633        -1.68214
   H       -3.76231         0.09945        -1.41627
   H       -4.85128         2.83447         1.91005
   H      -14.10992         4.92448         2.59581
   H      -14.10595         6.51409         3.39278
   H      -14.03898         5.01949         4.37548
   H      -13.10900         6.90404         5.58879
   H      -12.11272         8.54199         7.53512
   H       -9.10126        10.85358        11.28461
   H       -6.37264         6.99264         9.61626
   H       -4.38237        10.57645        13.02624
   H       -6.79656        11.52464        12.72567
*
