# ORCA input file
# SCF done       -227.007098467536          0.000910784768
! CAM-B3LYP def2-SVP def2/J RIJCOSX Grid4 TightSCF
%maxcore 5000
%tddft
    Mode sTDDFT
    Ethresh 5.0
    maxcore 5000
end

%pal
  nprocs 6
  end
* xyz 0 1
   C       -0.10950        -6.77641        -1.26094
   C        0.40517        -8.01132        -1.62417
   C       -0.07617        -8.69101        -2.73595
   C       -1.08153        -8.15104        -3.52231
   C       -1.60202        -6.91455        -3.17293
   C       -1.12019        -6.22479        -2.03422
   C       -1.85916        -4.98328        -1.88057
   C       -1.60106        -3.97670        -0.99971
   C       -0.52101        -3.99037        -0.08664
   N        0.33911        -3.94042         0.66989
   C       -2.34073        -2.77570        -0.88709
   N       -2.89406        -1.78463        -0.72325
   C       -2.94895        -5.02999        -2.86659
   C       -2.61838        -6.10256        -3.81284
   C       -3.05886        -6.21519        -5.09941
   C       -3.83469        -5.24279        -5.76212
   N       -4.42488        -4.45944        -6.35856
   C       -2.71806        -7.28687        -5.95607
   N       -2.49412        -8.13897        -6.68927
   C       -4.10491        -4.35175        -2.75437
   C       -5.32333        -4.53180        -3.52694
   C       -5.91828        -3.43003        -4.14206
   C       -5.39783        -2.04263        -4.22016
   O       -4.38322        -1.60539        -3.74667
   N       -6.32559        -1.34653        -4.99497
   C       -7.36799        -2.16810        -5.45191
   O       -8.27509        -1.80072        -6.14398
   C       -7.08466        -3.51683        -4.89604
   C       -7.75779        -4.71395        -5.05848
   C       -7.19714        -5.81627        -4.42328
   C       -6.01653        -5.74493        -3.68100
   C       -5.61205        -7.03042        -3.07433
   O       -4.66318        -7.25010        -2.37703
   S       -6.78178        -8.30146        -3.53958
   C       -7.80393        -7.16310        -4.49026
   O       -8.79768        -7.48819        -5.05793
   C       -6.27571        -0.00525        -5.35760
   C       -5.45286         0.90466        -4.81437
   C       -5.40359         2.27599        -5.20139
   S       -4.52932         3.40066        -4.20781
   C       -4.83438         4.75386        -5.24248
   C       -5.60780         4.34802        -6.33029
   C       -5.93870         2.95432        -6.28620
   N       -6.68875         2.66686        -7.38226
   C       -6.83935         3.82786        -8.10181
   N       -7.55726         3.79126        -9.31569
   O       -8.02528         2.70877        -9.62970
   O       -7.65404         4.81239        -9.96099
   C       -6.21112         4.88895        -7.49013
   C       -4.27628         6.05819        -5.01873
   C       -3.71188         6.78071        -6.08583
   C       -3.42360         6.33698        -7.46797
   O       -3.50648         5.23989        -7.95093
   N       -2.92160         7.47217        -8.12846
   C       -2.77307         8.56487        -7.26503
   O       -2.36919         9.64634        -7.59265
   C       -3.23479         8.08400        -5.94126
   C       -3.23462         8.74061        -4.72553
   C       -3.74957         8.02384        -3.65146
   C       -4.26593         6.73523        -3.77679
   C       -4.87238         6.22347        -2.53200
   O       -5.46675         5.20185        -2.35749
   S       -4.64008         7.42624        -1.21399
   C       -3.81991         8.59899        -2.28914
   O       -3.41492         9.66196        -1.93240
   C       -2.80163         7.63189        -9.49702
   C       -3.04249         6.68165       -10.41064
   C       -3.04251         6.90760       -11.82371
   C       -3.47606         8.00125       -12.49813
   C       -3.19769         8.23076       -13.92141
   C       -2.82484         7.30257       -14.85142
   C       -2.66346         5.91727       -14.62502
   N       -2.51299         4.78338       -14.52979
   C       -2.58443         7.60204       -16.21158
   N       -2.37442         7.77277       -17.32639
   C       -3.41019         9.64732       -14.16754
   C       -3.97861        10.23027       -13.01223
   C       -4.24298        11.59087       -12.97056
   C       -3.95580        12.35754       -14.08889
   C       -3.41452        11.78189       -15.23051
   C       -3.13251        10.42585       -15.28125
   C       -4.18066         9.19320       -12.01050
   C       -5.05094         9.30235       -10.96241
   C       -5.80714        10.46944       -10.69778
   N       -6.45564        11.37441       -10.42237
   C       -5.38769         8.32817       -10.00095
   N       -5.74017         7.65434        -9.14000
   H        0.26829        -6.26789        -0.38910
   H        1.18874        -8.45271        -1.02768
   H        0.33519        -9.65536        -2.99141
   H       -1.45522        -8.69291        -4.37579
   H       -4.17620        -3.57349        -2.00483
   H       -8.65837        -4.80135        -5.64498
   H       -7.01449         0.23539        -6.10865
   H       -4.77875         0.61564        -4.02181
   H       -7.06299         1.78419        -7.69466
   H       -6.19697         5.89592        -7.85573
   H       -2.85974         9.74408        -4.60522
   H       -2.50838         8.64036        -9.76548
   H       -3.21124         5.66242       -10.09469
   H       -2.63976         6.08975       -12.40661
   H       -4.64735        12.05622       -12.08696
   H       -4.15351        13.41813       -14.06741
   H       -3.20105        12.39840       -16.09006
   H       -2.69787         9.99767       -16.16921
*
