# ORCA input file
# SCF done       -128.159032707460          0.000354524482
! CAM-B3LYP def2-SVP def2/J RIJCOSX Grid4 TightSCF
%maxcore 5000
%tddft
    Mode sTDDFT
    Ethresh 5.0
    maxcore 5000
end

%pal
  nprocs 6
  end
* xyz 0 1
   C        0.75988        -1.61104         0.42130
   S        2.47077        -1.61566         0.30657
   C        2.50095         0.08231        -0.08650
   C        1.21144         0.59953        -0.12163
   C        0.21622        -0.38058         0.17340
   C       -1.16445        -0.10856         0.21008
   N       -2.28808         0.11347         0.24312
   C        0.94211         1.94286        -0.41570
   N        0.75357         3.04820        -0.66158
   C        3.69078         0.81510        -0.31548
   C        4.93952         0.29055        -0.23215
   C        6.15052         0.99239        -0.40638
   S        7.64316         0.13862        -0.06175
   C        8.62207         1.54679        -0.36444
   C        7.80993         2.60021        -0.74048
   C        6.42228         2.31128        -0.77500
   C        5.67241         3.44853        -1.18812
   C        6.44155         4.53296        -1.44310
   C        6.00251         5.87577        -1.89645
   S        8.15638         4.23573        -1.18942
   C       10.01708         1.51906        -0.17578
   S       11.02566         2.94962        -0.31269
   C       12.49654         2.11785         0.14805
   C       12.20171         0.76887         0.37075
   C       10.82615         0.46146         0.18732
   O       10.58598        -0.84351         0.41399
   C       11.79916        -1.37655         0.73734
   N       11.85385        -2.75880         1.01938
   O       12.94934        -3.21375         1.29465
   O       10.81955        -3.39155         0.96730
   C       12.81528        -0.45424         0.73114
   C       13.71938         2.78455         0.29675
   S       15.13559         1.94032         0.90353
   C       16.10630         3.37919         0.86904
   C       15.36196         4.43890         0.39248
   C       14.01937         4.12816         0.06650
   C       13.31057         5.26381        -0.41150
   C       14.06505         6.38671        -0.45097
   C       13.67078         7.74620        -0.89400
   S       15.71204         6.11694         0.10464
   C       17.44692         3.33759         1.32423
   N       18.26771         4.46993         1.35062
   C       19.43411         4.02841         1.86653
   N       20.68817         4.36629         2.23980
   C       21.23640         3.18139         2.71165
   N       20.43646         2.16204         2.65967
   C       19.28238         2.65333         2.13086
   N       18.04141         2.25409         1.78470
   H        0.23492        -2.51332         0.66647
   H        3.54638         1.86013        -0.54323
   H        5.04361        -0.75779         0.02183
   H        4.60497         3.46735        -1.30545
   H        6.32179         6.64084        -1.18945
   H        4.91956         5.90556        -1.98479
   H        6.44343         6.11397        -2.86425
   H       13.84383        -0.65004         0.95334
   H       12.28010         5.24045        -0.71485
   H       13.84033         8.47304        -0.10011
   H       12.61855         7.75693        -1.16565
   H       14.26179         8.05409        -1.75659
   H       18.00848         5.39427         1.04764
   H       21.14229         5.26323         2.19726
   H       22.23996         3.14100         3.08329
*
