# ORCA input file
# SCF done       -193.303289682670          0.000586699787
! CAM-B3LYP def2-SVP def2/J RIJCOSX Grid4 TightSCF
%maxcore 5000
%tddft
    Mode sTDDFT
    Ethresh 5.0
    maxcore 5000
end

%pal
  nprocs 6
  end
* xyz 0 1
   C       -2.65808         1.16981         3.59574
   C       -2.49821         1.51450         4.91389
   C       -1.57370         0.90183         5.78384
   N       -0.83370         0.44757         6.53513
   C       -3.25532         2.49847         5.58227
   N       -3.84682         3.27112         6.19252
   C       -1.96434         0.09594         2.89948
   C       -2.51337        -0.03037         1.59766
   C       -2.06869        -0.96514         0.69455
   C       -1.03249        -1.81579         1.09279
   C       -0.48762        -1.67948         2.39200
   C       -0.93821        -0.73479         3.30698
   S        0.78498        -2.82762         2.66278
   C        0.57937        -3.46871         1.06940
   C       -0.39449        -2.85649         0.36106
   C       -3.57650         0.96901         1.41493
   O       -4.23815         1.15512         0.41156
   C       -3.61172         1.75125         2.67125
   C       -4.25202         2.94799         2.83071
   C       -5.24513         3.50231         1.99116
   S       -5.31205         5.23363         1.80708
   C       -6.62625         5.14653         0.68002
   C       -7.01873         3.82646         0.49994
   C       -6.26157         2.90904         1.24953
   S       -6.68675         1.23243         1.52110
   C       -7.65261         0.69525         0.15359
   O       -8.06086        -0.43570         0.15779
   C       -8.01138         1.61505        -0.98616
   O       -8.33302         1.18552        -2.05615
   S       -8.22776         3.35982        -0.69207
   C       -7.11368         6.37611         0.14004
   C       -8.27435         6.54096        -0.51092
   C       -8.71827         7.84862        -1.07846
   C       -8.59963         9.02149        -0.11819
   C       -9.55591         8.65552         1.06261
   C      -10.11844         7.22328         1.07961
   C       -9.83273         6.43855         2.12010
   O      -11.08510         6.71931         0.23060
   C      -11.06395         6.82240        -1.21103
   C      -10.21072         8.03538        -1.48537
   C      -10.13382         8.95958        -2.65919
   C       -9.47782        10.07033        -2.33650
   C       -8.95805        10.31908        -0.92619
   C       -7.74268        11.24634        -0.98991
   C      -12.50674         6.99229        -1.68771
   C      -13.37832         5.81886        -1.24874
   C      -14.86339         6.02951        -1.58228
   C      -15.11073         6.03589        -3.05051
   C      -15.52567         4.96208        -3.74791
   C      -15.77508         4.87422        -5.15542
   C      -16.21325         3.66405        -5.57206
   C      -16.33911         2.69926        -4.53681
   S      -15.87197         3.39519        -2.99820
   C      -16.75684         1.39397        -4.65138
   C      -17.15400         0.70368        -5.82255
   C      -17.51260        -0.58796        -5.60546
   C      -17.42385        -1.01340        -4.25161
   S      -16.86081         0.32913        -3.26372
   C      -17.72711        -2.27201        -3.80888
   C      -17.66727        -2.80460        -2.50117
   C      -17.98646        -4.12240        -2.17596
   C      -17.80496        -4.30954        -0.77995
   C      -17.96990        -5.40710         0.02971
   C      -17.69229        -5.25645         1.40178
   C      -17.75281        -6.15284         2.45457
   C      -17.36091        -5.48481         3.66200
   C      -17.06035        -4.17509         3.34681
   C      -17.25046        -3.98179         1.94050
   C      -17.08381        -2.88736         1.13864
   C      -17.35799        -3.03683        -0.24011
   C      -17.27828        -2.13955        -1.28427
   C      -17.28517        -6.06214         4.98204
   C      -17.55810        -7.32690         5.29190
   H       -2.50923        -1.03938        -0.28759
   H       -0.48869        -0.66674         4.28365
   H        1.21143        -4.27721         0.75728
   H       -0.66374        -3.12036        -0.64561
   H       -3.92582         3.59975         3.63235
   H       -6.48558         7.22884         0.35837
   H       -8.87752         5.67314        -0.71614
   H       -8.09239         8.01544        -1.96529
   H       -7.58851         9.13820         0.27389
   H      -10.39428         9.35578         1.12036
   H       -9.00609         8.76172         1.99788
   H       -9.19156         6.75866         2.91915
   H      -10.25397         5.45220         2.19200
   H      -10.66860         5.88326        -1.62156
   H      -10.66504         8.70801        -0.75332
   H      -10.52433         8.73702        -3.63720
   H       -9.29259        10.85672        -3.05164
   H       -9.75013        10.85646        -0.38641
   H       -6.92636        10.76429        -1.52391
   H       -7.40125        11.50009         0.01109
   H       -7.99302        12.16959        -1.50731
   H      -12.90986         7.91937        -1.27361
   H      -12.49813         7.07502        -2.77555
   H      -13.27167         5.69690        -0.17055
   H      -13.03076         4.90216        -1.72877
   H      -15.19250         6.97642        -1.14808
   H      -15.43586         5.21867        -1.12613
   H      -14.92053         6.95339        -3.58937
   H      -15.62056         5.72462        -5.79594
   H      -16.45514         3.42547        -6.59265
   H      -17.16191         1.18054        -6.78632
   H      -17.84071        -1.26364        -6.37618
   H      -18.05653        -2.96593        -4.57395
   H      -18.31355        -4.87808        -2.86649
   H      -18.29864        -6.35923        -0.36277
   H      -18.04511        -7.18460         2.38430
   H      -16.73399        -3.41535         4.03341
   H      -16.75229        -1.93502         1.52795
   H      -16.97517        -1.11211        -1.20713
   H      -16.97351        -5.37663         5.76063
   H      -17.86845        -8.04618         4.55351
   H      -17.47714        -7.68900         6.30215
*
