# ORCA input file
# SCF done       -214.995109876903          0.000670705458
! CAM-B3LYP def2-SVP def2/J RIJCOSX Grid4 TightSCF
%maxcore 5000
%tddft
    Mode sTDDFT
    Ethresh 5.0
    maxcore 5000
end

%pal
  nprocs 6
  end
* xyz 0 1
   C       -5.27258        -2.51448         0.10068
   C       -5.80328        -2.03654         1.28926
   F       -6.63846        -0.99209         1.25162
   C       -5.48604        -2.61383         2.51952
   F       -6.02342        -2.11917         3.64137
   C       -4.61843        -3.69123         2.58990
   C       -4.08915        -4.16522         1.40577
   C       -4.40457        -3.59413         0.16368
   C       -3.68929        -4.32589        -0.88031
   C       -3.86338        -4.14159        -2.22689
   C       -4.71496        -3.16384        -2.78518
   N       -5.38473        -2.38868        -3.30259
   C       -3.26914        -4.90861        -3.25276
   N       -2.85896        -5.48834        -4.15513
   C       -2.85096        -5.32158        -0.23449
   C       -3.13190        -5.28156         1.22034
   O       -2.66998        -5.95861         2.11056
   C       -1.88005        -6.03611        -0.88885
   C       -1.04816        -7.09336        -0.46641
   C        0.02815        -7.52857        -1.22527
   C        0.65964        -8.61868        -0.56068
   C       -0.13517        -8.83523         0.64418
   C       -1.13792        -7.94482         0.71961
   F        0.13109        -9.80500         1.53138
   C        1.79113        -9.31071        -0.93687
   C        2.42391       -10.38910        -0.27647
   C        3.56674       -10.74260        -0.96653
   C        3.68405        -9.86606        -2.13973
   C        2.63156        -9.03849        -2.11748
   F        2.35886        -8.08331        -3.00883
   C        4.46630       -11.76140        -0.58305
   C        5.63723       -12.02686        -1.21738
   N        6.50600       -13.01319        -0.90109
   C        6.33432       -13.98241         0.16250
   C        6.67786       -13.39040         1.52855
   C        6.57310       -14.44412         2.63179
   N        7.09021       -13.86728         3.85851
   S        8.72676       -14.37706         3.99225
   N        8.40403       -15.93140         3.32951
   C        7.42641       -15.72359         2.27870
   C        8.19176       -15.53342         0.96850
   C        7.26578       -15.17051        -0.19322
   N        8.02770       -14.76755        -1.36423
   S        8.10404       -13.06633        -1.47103
   C        8.87187       -15.60234        -2.01477
   C        9.82805       -15.18198        -2.87855
   C       10.70334       -16.02733        -3.59471
   C       11.73769       -15.61209        -4.40847
   C       12.42405       -16.74386        -4.91019
   C       11.70948       -17.90341        -4.35086
   C       10.69892       -17.49574        -3.57219
   F       12.05056       -19.17185        -4.59973
   C       13.54167       -16.78711        -5.71621
   C       14.25127       -17.92902        -6.18344
   C       15.34545       -17.51309        -6.92118
   C       15.34195       -16.04967        -6.95479
   C       14.27597       -15.64010        -6.24871
   F       13.90876       -14.37060        -6.03298
   C       16.29612       -18.36544        -7.51774
   C       17.42820       -17.95238        -8.16252
   C       18.34048       -18.86318        -8.72029
   C       19.49530       -18.59935        -9.40845
   C       20.50416       -19.67715        -9.55540
   O       20.34856       -20.85689        -9.33942
   C       21.74986       -18.98942        -9.96657
   C       21.48527       -17.62215       -10.15855
   C       22.51272       -16.76055       -10.50694
   C       23.78440       -17.29305       -10.66056
   C       24.03577       -18.65351       -10.48179
   C       23.01384       -19.52058       -10.12952
   F       25.27810       -19.12440       -10.64645
   F       24.79340       -16.47634       -10.98419
   C       20.05373       -17.38322        -9.95060
   C       19.37577       -16.27828       -10.39682
   C       17.97082       -16.15959       -10.45284
   N       16.83906       -16.00958       -10.57194
   C       20.00299       -15.14800       -10.96248
   N       20.45868       -14.19490       -11.41095
   H       -5.54646        -2.03002        -0.82194
   H       -4.36729        -4.14000         3.53774
   H       -1.68837        -5.73961        -1.91443
   H        0.34644        -7.10509        -2.15848
   H       -1.86995        -7.85444         1.49502
   H        2.07333       -10.84621         0.62748
   H        4.46103        -9.89826        -2.87711
   H        4.17356       -12.33810         0.28236
   H        5.95558       -11.43261        -2.06102
   H        5.28926       -14.30926         0.15288
   H        5.99864       -12.57015         1.76042
   H        7.68909       -12.98207         1.52324
   H        5.52309       -14.71963         2.77191
   H        6.55548       -14.13084         4.67945
   H        8.08778       -16.57718         4.04596
   H        6.77921       -16.60236         2.20108
   H        8.72699       -16.45618         0.74278
   H        8.94026       -14.75307         1.11387
   H        6.66663       -16.04565        -0.47278
   H        8.71851       -16.64975        -1.80203
   H        9.95869       -14.11582        -3.01991
   H       11.99413       -14.59317        -4.61978
   H       10.00792       -18.11747        -3.03850
   H       13.98639       -18.94794        -5.97801
   H       16.04599       -15.43177        -7.47506
   H       16.09564       -19.42810        -7.45240
   H       17.64739       -16.89786        -8.21307
   H       18.16950       -19.91634        -8.51912
   H       22.37074       -15.70219       -10.65231
   H       23.20537       -20.57219        -9.98766
*
