# ORCA input file
# SCF done       -192.780616106173          0.000470995761
! CAM-B3LYP def2-SVP def2/J RIJCOSX Grid4 TightSCF
%maxcore 5000
%tddft
    Mode sTDDFT
    Ethresh 5.0
    maxcore 5000
end

%pal
  nprocs 6
  end
* xyz 0 1
   C        1.32949        -3.36858         4.69014
   O        1.32606        -4.56080         4.48382
   C        2.32018        -2.63546         5.50892
   C        2.00027        -1.26744         5.54307
   C        2.80702        -0.39162         6.25148
   C        3.91629        -0.90005         6.91738
   C        4.22169        -2.26313         6.88352
   C        3.41875        -3.14369         6.17092
  Br        5.73098        -2.92738         7.80614
  Br        5.02131         0.29329         7.88046
   C        0.78468        -1.05294         4.76555
   C        0.06451         0.10820         4.71042
   C        0.45740         1.30638         5.34577
   N        0.73794         2.30361         5.83850
   C       -1.18693         0.25076         4.06974
   N       -2.22252         0.43224         3.61073
   C        0.41996        -2.32285         4.15397
   C       -0.43967        -2.44695         3.10353
   C       -0.90806        -3.62959         2.45689
   C       -1.05623        -4.88608         3.02678
   C       -1.53513        -5.99090         2.31787
   C       -1.91033        -5.95023         0.98385
   C       -1.81976        -4.66978         0.36615
   C       -1.33638        -3.52866         1.10199
   N       -1.35974        -2.49746         0.28272
   O       -1.82762        -2.95139        -0.87498
   N       -2.10739        -4.25138        -0.85040
   C       -2.34569        -7.10277         0.26059
   C       -2.72179        -7.17068        -1.05478
   C       -3.05265        -8.47743        -1.47966
   C       -2.92067        -9.42870        -0.42991
   S       -2.40297        -8.67303         1.04770
   C       -3.16373       -10.77066        -0.61182
   C       -3.54548       -11.19693        -1.88407
   C       -3.68577       -10.24682        -2.93349
   C       -3.45052        -8.90380        -2.74933
   S       -4.15547       -11.02146        -4.42221
   C       -4.14250       -12.59259        -3.64805
   C       -3.81343       -12.51443        -2.32317
   C       -4.42711       -13.77347        -4.40136
   C       -4.35761       -15.06666        -3.95745
   C       -4.66330       -16.01790        -4.95752
   C       -4.96489       -15.40498        -6.19208
   S       -4.88743       -13.67179        -6.08494
   C       -5.25138       -16.09211        -7.37022
   O       -5.50113       -15.29117        -8.42707
   C       -5.59991       -15.79253        -9.73936
   C       -5.24057       -17.50136        -7.30185
   C       -4.92574       -18.10847        -6.04775
   C       -4.65134       -17.42206        -4.88432
   O       -4.32602       -18.10820        -3.74081
   C       -5.33284       -18.12195        -2.74527
   S       -4.91199       -19.84295        -6.13269
   C       -5.34224       -19.78065        -7.83272
   C       -5.50807       -18.49294        -8.27519
   C       -5.55403       -20.95491        -8.60142
   C       -5.02918       -22.19175        -8.39402
   C       -5.67948       -23.39650        -8.97243
   O       -6.53017       -23.42966        -9.82904
   C       -5.09856       -24.53424        -8.22198
   C       -4.08541       -24.06670        -7.36331
   C       -3.92218       -22.63059        -7.56923
   C       -2.79582       -21.90539        -7.28668
   C       -2.56835       -20.61477        -7.81155
   N       -2.32936       -19.59884        -8.28904
   C       -1.70385       -22.41049        -6.55178
   N       -0.80255       -22.78493        -5.94880
   C       -3.41483       -24.95209        -6.53759
   C       -3.76469       -26.29683        -6.58422
   C       -4.76119       -26.75623        -7.44827
   C       -5.43807       -25.87008        -8.27698
  Br       -5.20674       -28.59236        -7.50003
  Br       -2.86399       -27.50856        -5.44743
   H        2.60509         0.66636         6.29566
   H        3.64469        -4.19817         6.13460
   H       -0.78733        -1.53585         2.62934
   H       -0.80720        -5.02567         4.06489
   H       -1.60845        -6.93415         2.83927
   H       -2.74815        -6.30544        -1.69220
   H       -3.05372       -11.47699         0.19539
   H       -3.55668        -8.19613        -3.55565
   H       -3.75419       -13.36828        -1.67356
   H       -4.06178       -15.33791        -2.96105
   H       -5.60382       -14.91139       -10.38035
   H       -6.53418       -16.34215        -9.88647
   H       -4.74270       -16.42083        -9.99341
   H       -4.89222       -18.61640        -1.88216
   H       -6.20753       -18.68810        -3.08332
   H       -5.64853       -17.11090        -2.47222
   H       -5.78341       -18.30444        -9.29525
   H       -6.27884       -20.87843        -9.40591
   H       -2.64344       -24.62655        -5.85798
   H       -6.20973       -26.21662        -8.94678
*
