# ORCA input file
# SCF done       -192.636155675962          0.000690159449
! CAM-B3LYP def2-SVP def2/J RIJCOSX Grid4 TightSCF
%maxcore 5000
%tddft
    Mode sTDDFT
    Ethresh 5.0
    maxcore 5000
end

%pal
  nprocs 6
  end
* xyz 0 1
   C       -2.89847        -3.45688         5.70917
   N       -3.71867        -3.94996         4.83185
   N       -3.36433        -4.21888         3.59022
   C       -2.14283        -4.06057         3.14614
   C       -1.12410        -3.62953         4.04664
   C       -1.53247        -3.27528         5.37871
   N       -0.43961        -2.93755         6.03936
   O        0.56242        -3.08733         5.18790
   N        0.18721        -3.50511         3.98637
   C       -1.84870        -4.33815         1.76031
   C       -1.04110        -3.59901         0.92234
   C       -0.50669        -2.28817         1.29428
   O       -0.91472        -1.62463         2.22354
   C        0.56089        -1.83593         0.38135
   C        0.82981        -2.49108        -0.84954
   C        1.85780        -1.88316        -1.53142
   S        2.51638        -0.53478        -0.69088
   C        1.39609        -0.76592         0.59005
   C        1.42272         0.14587         1.77793
   F        0.34040         0.92521         1.85377
   F        1.52709        -0.51657         2.93262
   F        2.48076         0.97409         1.71802
   C        2.43549        -2.26768        -2.85843
   F        1.55456        -2.17637        -3.85888
   F        3.45678        -1.45408        -3.18340
   F        2.93080        -3.50923        -2.86972
   C        0.07235        -3.66961        -1.33691
   O        0.29840        -4.14767        -2.43301
   C       -0.88551        -4.18588        -0.36938
   C       -1.63398        -5.35739        -0.50006
   S       -2.47504        -5.73802         0.97769
   C       -1.78315        -6.24481        -1.59989
   C       -1.68239        -6.00472        -2.94274
   C       -1.89429        -7.14414        -3.74309
   C       -2.21138        -8.30033        -2.97472
   S       -2.20566        -7.91793        -1.27312
   C       -2.50638        -9.51875        -3.56099
   S       -2.92922       -10.99559        -2.68826
   C       -1.77646       -11.01286        -1.28040
   C       -2.52104        -9.57389        -4.96777
   C       -2.18976        -8.42160        -5.72854
   C       -1.85103        -7.21735        -5.14449
   S       -1.43004        -5.82576        -6.15639
   C        0.28398        -5.50107        -5.62488
   S       -2.22856        -8.74127        -7.43598
   C       -2.68247       -10.41018        -7.12725
   C       -2.79665       -10.68567        -5.79030
   C       -2.86413       -11.29470        -8.17640
   C       -2.98726       -12.04531        -9.12392
   C       -3.11990       -12.95620       -10.15568
   S       -3.57955       -14.60904        -9.83220
   C       -3.46074       -14.99653       -11.52824
   C       -3.09260       -13.89389       -12.27243
   C       -2.90319       -12.74783       -11.50255
   C       -3.70614       -16.28340       -11.97971
   C       -3.91259       -17.42293       -12.34449
   C       -4.13741       -18.73192       -12.76469
   C       -3.79881       -19.17230       -13.99170
   C       -3.99598       -20.51727       -14.48762
   C       -3.26226       -20.93124       -15.62113
   O       -2.40250       -19.99474       -16.10873
   C       -1.75673       -20.14122       -17.35286
   C       -3.43673       -22.23820       -16.11446
   O       -2.68195       -22.62582       -17.19590
   C       -2.83791       -23.92826       -17.69953
   C       -4.34684       -23.08355       -15.49431
   C       -5.07566       -22.66637       -14.39167
   C       -4.89810       -21.39976       -13.88878
   H       -3.29156        -3.23170         6.68779
   H       -1.50946        -5.02899        -3.35337
   H       -1.66267       -12.05892        -1.01251
   H       -2.18455       -10.45761        -0.44155
   H       -0.82246       -10.60237        -1.59286
   H        0.63765        -4.70490        -6.27198
   H        0.87319        -6.39936        -5.78229
   H        0.32802        -5.18185        -4.58995
   H       -3.06630       -11.65390        -5.40968
   H       -2.96848       -13.93514       -13.33982
   H       -2.61290       -11.79068       -11.89785
   H       -4.58052       -19.38731       -12.02590
   H       -3.31016       -18.48862       -14.67116
   H       -1.26419       -19.18386       -17.52706
   H       -2.46767       -20.33504       -18.15861
   H       -1.00801       -20.93510       -17.33171
   H       -2.14628       -23.99722       -18.53837
   H       -3.85714       -24.10566       -18.05809
   H       -2.57522       -24.68491       -16.95298
   H       -4.49397       -24.08425       -15.86584
   H       -5.77974       -23.34439       -13.93445
   H       -5.47655       -21.07347       -13.03956
*
