# ORCA input file
# SCF done       -193.300065601099          0.000963696753
! CAM-B3LYP def2-SVP def2/J RIJCOSX Grid4 TightSCF
%maxcore 5000
%tddft
    Mode sTDDFT
    Ethresh 5.0
    maxcore 5000
end

%pal
  nprocs 6
  end
* xyz 0 1
   C        4.85690         3.55739         0.71306
   C        4.70057         4.90069         0.87089
   S        6.22110         5.68594         1.08687
   C        7.09520         4.17827         0.95865
  Cl        8.78193         4.11583         1.08214
   C        6.22813         3.14334         0.76374
   C        6.31555         1.69816         0.58198
   O        7.30780         1.00782         0.51120
   C        4.90198         1.23261         0.45615
   C        4.01538         2.39779         0.50697
   C        2.65407         2.42837         0.39812
   C        1.94015         3.64493         0.47578
   N        1.34734         4.62470         0.53684
   C        1.81274         1.31422         0.19963
   N        1.07029         0.45421         0.03837
   C        4.51885        -0.05169         0.33400
   C        5.39879        -1.25465         0.36736
   C        4.51860        -2.51189         0.51129
   N        6.07537        -1.42978        -0.95048
   N        7.20428        -1.80901        -1.11209
   C        8.24455        -2.01971        -0.11592
   C        7.74115        -1.69815         1.24932
   C        6.40261        -1.25048         1.45760
   N        6.25786        -0.98322         2.72194
   O        7.44726        -1.24589         3.29290
   N        8.34228        -1.68125         2.40092
   C        9.36585        -1.03230        -0.51142
   C        8.83590        -3.40537        -0.12977
   N        8.39144        -4.50863        -0.80860
   C        7.35841        -4.61527        -1.81659
   C        6.20294        -5.49523        -1.34923
   C        9.17909        -5.64509        -0.50412
   O        9.00381        -6.73486        -1.01956
   C       10.14690        -5.17193         0.44321
   C        9.92667        -3.76978         0.62380
   C       10.96556        -3.27462         1.50419
   O       11.25982        -2.16339         1.88149
   N       11.70402        -4.42881         1.84765
   C       12.86571        -4.33577         2.69943
   C       14.15851        -4.27343         1.89042
   C       11.23034        -5.54873         1.21901
   C       11.78274        -6.85900         1.39979
   C       11.23611        -7.93933         0.82729
   C       11.79784        -9.32832         1.00310
   C       11.36904        -9.92007         2.34802
   N       13.26563        -9.17819         1.01955
   N       13.96668        -9.20463         0.04059
   C       13.50372        -9.41807        -1.33585
   C       12.27692       -10.25522        -1.28801
   C       11.42912       -10.19466        -0.14127
   N       10.46661       -11.05269        -0.31704
   O       10.68166       -11.61924        -1.51154
   N       11.78733       -11.14443        -2.10243
   C       13.14155        -8.06581        -1.98957
   C       14.58280       -10.08308        -2.12888
   C       15.87008       -10.30597        -1.83559
   C       16.61277       -11.28205        -2.71935
   O       16.28467       -11.63004        -3.82409
   C       17.74844       -11.71440        -1.90527
   C       18.75064       -12.63557        -1.99764
   S       19.75624       -12.58708        -0.57111
   C       18.82205       -11.31458         0.12533
   C       17.79274       -10.95600        -0.68902
   C       16.73128        -9.96586        -0.69959
   C       16.71877        -8.86150         0.09907
   C       17.67092        -8.69391         1.12968
   N       18.42411        -8.54579         1.98162
   C       15.88139        -7.73350        -0.03612
   N       15.35954        -6.71421        -0.13282
  Cl       19.05943       -13.71788        -3.26227
   H        3.80152         5.48446         0.87735
   H        3.46964        -0.27165         0.20027
   H        3.90464        -2.63164        -0.37782
   H        3.88273        -2.40681         1.38677
   H        5.13900        -3.39701         0.63657
   H        8.97082        -0.02064        -0.51682
   H        9.73841        -1.28456        -1.50032
   H       10.16236        -1.09678         0.22509
   H        7.81290        -5.07274        -2.70190
   H        7.01845        -3.61104        -2.07393
   H        6.55177        -6.51380        -1.20220
   H        5.41821        -5.49669        -2.10006
   H        5.78906        -5.13386        -0.41095
   H       12.87828        -5.18009         3.39359
   H       12.74571        -3.41081         3.27059
   H       14.28853        -5.16183         1.27674
   H       15.00724        -4.18927         2.56345
   H       14.14457        -3.40217         1.24038
   H       12.66792        -6.95668         2.01109
   H       10.35618        -7.85726         0.20312
   H       11.71754        -9.28119         3.15384
   H       11.79534       -10.91275         2.47087
   H       10.28592        -9.99529         2.37906
   H       12.29878        -7.61120        -1.47093
   H       12.86788        -8.24234        -3.02690
   H       13.98957        -7.38909        -1.94330
   H       14.22653       -10.51259        -3.05979
   H       19.09328       -10.93092         1.08860
*
