# ORCA input file
# SCF done       -178.192436652047          0.000496260381
! CAM-B3LYP def2-SVP def2/J RIJCOSX Grid4 TightSCF
%maxcore 5000
%tddft
    Mode sTDDFT
    Ethresh 5.0
    maxcore 5000
end

%pal
  nprocs 6
  end
* xyz 0 1
   C       -5.77460         0.62343         1.95706
   C       -4.58713         0.93838         2.59238
   C       -4.60683         1.92133         3.58445
   C       -3.40617         2.24780         4.26189
   N       -2.42995         2.49877         4.80492
   C       -5.79858         2.58887         3.92521
   C       -5.78373         3.59090         4.92488
   N       -5.79067         4.40319         5.73212
   C       -6.99559         2.26177         3.28396
   C       -6.96804         1.28012         2.31722
   C       -8.09474         0.72779         1.52157
   O       -9.25086         1.07947         1.54500
   C       -7.50289        -0.38525         0.74504
   C       -6.06852        -0.30888         0.86746
   C       -5.14863        -0.76912        -0.04079
   C       -3.75555        -0.62616         0.10754
   N       -2.61356        -0.56207         0.20439
   C       -5.51450        -1.34953        -1.27340
   N       -5.78086        -1.76505        -2.30970
   C       -8.31670        -1.31538         0.15292
   C       -8.02611        -2.63139        -0.22405
   C       -8.86682        -3.44493        -1.01570
   O       -9.99675        -2.93288        -1.50268
   C      -10.78394        -3.75868        -2.34256
   C       -8.36155        -4.73037        -1.21349
   C       -7.15588        -4.94308        -0.56389
   S       -6.63593        -3.53847         0.31219
   C       -6.39293        -6.12318        -0.60882
   C       -6.70965        -7.28432        -1.32991
   C       -5.69775        -8.29045        -1.20692
   N       -5.75875        -9.44246        -1.86205
   C       -6.81047        -9.64024        -2.63145
   C       -6.86174       -10.89980        -3.40730
   O       -5.98485       -11.74037        -3.34424
   C       -8.04859       -11.05657        -4.26095
   C       -9.03427       -10.15411        -4.33051
   C       -9.04820        -8.89562        -3.56630
   O       -9.96371        -8.10230        -3.62548
   C       -7.84890        -8.66152        -2.71917
   N       -7.78955        -7.51048        -2.08422
   C       -4.61653        -7.90179        -0.39863
   S       -4.85255        -6.30150         0.19597
   C       -3.47680        -8.69599        -0.25171
   C       -2.21830        -8.33740         0.25735
   O       -2.08577        -7.12968         0.82209
   C       -0.78673        -6.72014         1.20448
   C       -1.25991        -9.33446         0.05324
   C       -1.76260       -10.43482        -0.62142
   S       -3.46960       -10.28291        -0.93361
   C       -1.06780       -11.59465        -1.05191
   C       -1.44757       -12.40745        -2.07431
   C       -0.96086       -13.81346        -2.15261
   O       -0.01650       -14.29336        -1.57549
   C       -1.93949       -14.49947        -3.03161
   C       -2.05667       -15.84477        -3.31448
   C       -3.11234       -16.25593        -4.13091
   C       -4.03386       -15.31491        -4.63269
   C       -3.89808       -13.95407        -4.35672
   C       -2.83931       -13.55328        -3.56243
   C       -2.43191       -12.22185        -3.12890
   C       -2.70713       -11.06288        -3.79804
   C       -2.08700        -9.83213        -3.48950
   N       -1.56993        -8.82804        -3.28633
   C       -3.59536       -10.96580        -4.88905
   N       -4.31208       -10.81539        -5.77193
   C       -5.12416       -15.75355        -5.42411
   N       -6.01430       -16.09169        -6.05977
   C       -3.26724       -17.62762        -4.44551
   N       -3.37791       -18.74040        -4.69218
   H       -3.65846         0.44401         2.35388
   H       -7.91651         2.76381         3.53884
   H       -9.35483        -1.02240         0.02781
   H      -11.63946        -3.15175        -2.63121
   H      -11.12639        -4.65076        -1.81237
   H      -10.22676        -4.05828        -3.23314
   H       -8.81795        -5.50396        -1.80339
   H       -8.07970       -11.96715        -4.84384
   H       -9.89244       -10.31049        -4.96991
   H       -0.89828        -5.70850         1.58881
   H       -0.10978        -6.71485         0.34657
   H       -0.38500        -7.36837         1.98795
   H       -0.22303        -9.24911         0.32253
   H       -0.20092       -11.90558        -0.47880
   H       -1.35636       -16.56122        -2.91255
   H       -4.62718       -13.25033        -4.72470
*
