# ORCA input file
# SCF done       -190.626902587968          0.000794750697
! CAM-B3LYP def2-SVP def2/J RIJCOSX Grid4 TightSCF
%maxcore 5000
%tddft
    Mode sTDDFT
    Ethresh 5.0
    maxcore 5000
end

%pal
  nprocs 6
  end
* xyz 0 1
   C       -5.01856        14.21919        -1.93729
   C       -4.66695        15.20530        -1.05354
   C       -3.94164        16.36215        -1.40486
   N       -3.35126        17.31872        -1.63597
   C       -5.00364        15.18566         0.31552
   N       -5.26518        15.20387         1.43312
   C       -4.71097        14.19521        -3.36541
   C       -5.31024        13.04570        -3.94453
   C       -5.15943        12.71429        -5.26943
   C       -4.36452        13.54975        -6.05870
   C       -3.78336        14.70453        -5.48140
   C       -3.94943        15.04617        -4.14322
   S       -2.82581        15.57788        -6.63745
   C       -3.19040        14.38130        -7.85355
   C       -4.00352        13.38803        -7.42203
  Br       -2.44206        14.53302        -9.56698
   C       -6.00898        12.29876        -2.89781
   O       -6.64363        11.25438        -3.02731
   C       -5.76404        13.01469        -1.64395
   C       -6.13769        12.48616        -0.43253
   N       -6.76306        11.30498        -0.37653
   C       -7.15324        10.62894         0.73709
   S       -7.15894        11.37964         2.30299
   C       -7.85667         9.93913         2.96604
   N       -8.11914         9.91062         4.34361
   O       -8.61649         8.89974         4.80065
   O       -7.82442        10.90743         4.97712
   C       -8.07307         8.95564         2.03791
   C       -7.65489         9.32386         0.74590
   C       -7.75756         8.44292        -0.39749
   C       -6.92449         8.42144        -1.45263
   C       -7.12965         7.58675        -2.60125
   C       -6.38515         7.62381        -3.71916
   C       -5.20196         8.52269        -3.89526
   C       -6.83277         6.84605        -4.93498
   N       -7.85791         7.58184        -5.64825
   C       -7.58883         8.65804        -6.42328
   C       -8.53235         9.53439        -6.83905
   C       -8.31065        10.61586        -7.72802
   S       -6.72502        11.07428        -8.27077
   C       -7.37083        12.38193        -9.24967
   C       -8.76120        12.40987        -9.15700
   C       -9.27844        11.43610        -8.29595
   C      -10.74768        11.25981        -8.05972
   C      -11.54682        12.42075        -8.64617
   C      -11.06227        12.73658       -10.05988
   C      -11.97996        13.73121       -10.76155
   C       -9.63804        13.29008        -9.98198
   C       -6.48872        13.14558       -10.03181
   C       -6.73755        14.37036       -10.58895
   C       -5.84544        15.05811       -11.43230
   C       -4.79878        14.57555       -12.17539
   C       -3.73764        15.51475       -12.61547
   O       -3.78275        16.72533       -12.59429
   C       -2.60532        14.65846       -13.02488
   C       -1.33788        15.01605       -13.37865
   C       -0.39603        14.00601       -13.67984
   C       -0.78953        12.63895       -13.60212
   C        0.15821        11.63781       -13.88908
   C        1.42942        11.99737       -14.23942
   C        1.83496        13.33536       -14.32608
   C        0.92753        14.31985       -14.04842
   F        2.33713        11.03998       -14.51348
   C       -2.11511        12.29847       -13.24399
   C       -3.00981        13.29432       -12.96639
   C       -4.42160        13.24855       -12.59005
   C       -5.26325        12.18963       -12.83950
   C       -6.66177        12.26787       -12.71653
   N       -7.80988        12.29782       -12.67406
   C       -4.83327        10.93656       -13.31229
   N       -4.53587         9.88523       -13.66803
   H       -5.62512        11.83547        -5.68757
   H       -3.47826        15.92972        -3.74604
   H       -4.32842        12.56276        -8.02745
   H       -5.91171        12.97299         0.50749
   H       -6.96255        10.87944        -1.29893
   H       -8.49635         8.00088         2.29298
   H       -8.57284         7.73258        -0.35144
   H       -6.05245         9.05668        -1.47077
   H       -7.98181         6.91968        -2.55773
   H       -4.50825         8.42114        -3.06297
   H       -5.53041         9.56057        -3.93617
   H       -4.66828         8.29353        -4.81347
   H       -7.25635         5.88084        -4.64623
   H       -5.99784         6.67236        -5.61738
   H       -8.77311         7.57164        -5.22010
   H       -6.56634         8.74962        -6.76279
   H       -9.55103         9.40077        -6.50227
   H      -10.94525        11.17554        -6.98758
   H      -11.06777        10.32257        -8.52707
   H      -11.42567        13.30724        -8.01884
   H      -12.60682        12.16114        -8.65719
   H      -11.04125        11.80772       -10.63943
   H      -12.04976        14.65608       -10.19180
   H      -12.98063        13.31903       -10.86839
   H      -11.59709        13.96379       -11.75216
   H       -9.67121        14.29468        -9.54630
   H       -9.21203        13.36889       -10.98547
   H       -5.49704        12.72750       -10.16366
   H       -7.62980        14.90557       -10.30474
   H       -5.95051        16.13825       -11.46788
   H       -1.05349        16.05644       -13.42482
   H       -0.12044        10.59685       -13.83709
   H        2.85120        13.55927       -14.60896
   H        1.21628        15.35848       -14.10775
   H       -2.38523        11.25572       -13.18656
*
