# ORCA input file
# SCF done       -129.719444477335          0.000891577037
! CAM-B3LYP def2-SVP def2/J RIJCOSX Grid4 TightSCF
%maxcore 5000
%tddft
    Mode sTDDFT
    Ethresh 5.0
    maxcore 5000
end

%pal
  nprocs 6
  end
* xyz 0 1
   C       -1.42130        -2.77884         1.78054
   C       -0.54818        -2.44142         0.79244
   C       -0.46592        -1.04422         0.63510
   C       -1.29658        -0.35580         1.52751
   S       -2.16729        -1.41274         2.54631
   C       -1.14920         1.04248         1.30144
   C       -0.22323         1.22789         0.26652
   C        0.23589        -0.07833        -0.18920
   C        1.13422        -0.33127        -1.18520
   C        1.75736         0.69559        -1.92494
   N        2.27921         1.51440        -2.53546
   C        1.50545        -1.64265        -1.54729
   N        1.80713        -2.70651        -1.85256
   C       -0.00380         2.57279        -0.03459
   C       -0.75738         3.41246         0.76211
   S       -1.75427         2.52071         1.90417
   C       -0.78817         4.84067         0.73427
   C       -1.59978         5.60170         1.57336
   N       -1.67231         6.91814         1.59556
   C       -0.94521         7.67571         0.79007
   C       -0.05801         7.03962        -0.13306
   C        0.01254         5.60160        -0.15683
   N        0.87532         5.15877        -1.06906
   S        1.53117         6.41575        -1.82433
   N        0.75717         7.58391        -1.03319
   C       -1.09487         9.10204         0.89802
   C       -0.30654        10.00693         0.18327
   N       -0.39489        11.31777         0.26174
   C       -1.28248        11.92713         1.05506
   C       -2.15884        11.12462         1.84055
   C       -2.06153         9.69016         1.76345
   N       -2.94815         9.09672         2.55261
   S       -3.80982        10.22138         3.31426
   N       -3.10268        11.52922         2.67879
   C       -1.27684        13.33110         1.05311
   C       -0.36860        14.00458         0.26726
   C       -0.20582        15.40316         0.13439
   C        0.79683        15.76445        -0.71589
   C        1.46531        14.66014        -1.28501
   S        0.77465        13.13790        -0.71644
   C        2.52895        14.68665        -2.16763
   C        3.18628        15.80897        -2.72059
   C        4.21074        15.48902        -3.55706
   C        4.43133        14.09552        -3.71682
   S        3.25806        13.21259        -2.75370
   C        5.42644        13.55202        -4.49415
   C        5.77223        12.20332        -4.72446
   C        5.10630        11.09790        -4.23874
   C        5.66470         9.82717        -4.60134
   C        6.77600         9.85967        -5.37832
  Si        7.23738        11.61604        -5.74514
   H       -1.68447        -3.76071         2.11919
   H        0.00311        -3.15838         0.21176
   H        0.66313         2.94948        -0.78818
   H       -2.24476         5.10372         2.28740
   H        0.44859         9.63783        -0.49544
   H       -1.98165        13.86294         1.67130
   H       -0.83218        16.09373         0.67159
   H        1.06350        16.78375        -0.93423
   H        2.88722        16.81463        -2.48584
   H        4.82456        16.21032        -4.06797
   H        6.05181        14.28201        -4.99621
   H        4.21729        11.14052        -3.63016
   H        5.19864         8.91575        -4.25538
   H        7.26277         8.95162        -5.69508
   H        7.13159        11.99223        -7.15675
   H        8.52351        12.04057        -5.18712
*
