# ORCA input file
# SCF done       -230.516664331903          0.002261929300
! CAM-B3LYP def2-SVP def2/J RIJCOSX Grid4 TightSCF
%maxcore 5000
%tddft
    Mode sTDDFT
    Ethresh 5.0
    maxcore 5000
end

%pal
  nprocs 6
  end
* xyz 0 1
   C       19.75958        -6.49526        10.25941
   C       20.90123        -5.83188         9.89998
   C       20.93243        -5.05508         8.73243
   C       19.82246        -4.95316         7.94007
   C       18.62933        -5.62076         8.28170
   C       17.47557        -5.50632         7.47543
   C       16.32420        -6.14207         7.85595
   C       16.29645        -6.92620         9.04638
   C       17.40172        -7.06650         9.83472
   C       18.59700        -6.40707         9.46960
   C       14.93333        -7.44840         9.25582
   O       14.54342        -8.20215        10.11767
   C       14.10030        -6.76340         8.22657
   C       14.99781        -6.16021         7.25592
   C       14.70824        -5.86026         5.94965
   C       13.44786        -6.07526         5.36044
   N       12.45117        -6.24616         4.81563
   C       15.62732        -5.29687         5.04399
   N       16.31649        -4.80348         4.26829
   C       12.76441        -6.63299         8.43638
   C       11.85157        -5.70349         7.86266
   C       10.51820        -5.93679         7.64166
   C        9.97120        -4.82216         6.91447
   C        8.62679        -4.68436         6.55062
   N        7.52290        -4.56999         6.25466
   C       10.97885        -3.91681         6.65962
   C       12.17359        -4.39761         7.26754
   C       13.37545        -3.72055         7.37921
   C       13.95953        -2.80338         6.37584
   C       15.17069        -2.37921         6.87272
   C       15.37275        -2.97735         8.15691
   C       14.30573        -3.80967         8.44728
   C       16.51038        -2.80252         8.95357
   N       17.45902        -2.68440         9.59036
   C       13.43022        -2.63800         5.07127
   C       13.90002        -1.76477         4.14340
   C       13.39595        -1.61809         2.81238
   C       13.79286        -0.51115         2.06829
   C       13.30191        -0.29909         0.77508
   C       13.50947         0.72311        -0.16435
   C       14.30581         1.97131        -0.09270
   C       13.39821         3.14261         0.39129
   N       12.56640         3.61851        -0.69129
   C       15.56249         1.91054         0.78493
   N       16.37181         3.08834         0.52791
   C       12.67538         0.41177        -1.30111
   C       12.44454         1.10085        -2.43602
   C       11.47469         0.60950        -3.45624
   C       10.88955        -0.73259        -3.16184
   C       11.12978        -1.40478        -2.01954
   C       11.99348        -0.85540        -1.04273
   C       12.37676        -1.27659         0.21971
   C       12.01277        -2.41124         0.97417
   C       12.50470        -2.57258         2.23066
   C       12.12417         0.64917        -4.82251
   C       11.89837         1.61542        -5.70107
   C       12.53997         1.73898        -7.00713
   C       12.36963         0.92772        -8.07452
   C       13.09132         1.49147        -9.21400
   C       13.13396         0.92780       -10.49267
   N       13.19221         0.45655       -11.53877
   C       13.72478         2.62727        -8.80942
   C       13.49666         2.79130        -7.39296
   C       14.15773         3.62660        -6.52168
   C       15.32296         4.50228        -6.77964
   C       15.47718         5.31877        -5.68766
   C       14.51315         4.94002        -4.69288
   C       13.74441         3.90990        -5.18285
   C       14.37471         5.45883        -3.40227
   N       14.22099         5.80679        -2.31736
   C       16.24415         4.43911        -7.86320
   C       16.51876         3.31295        -8.57187
   C       17.35112         3.30762        -9.71529
   C       17.46123         2.24452       -10.56523
   C       18.20667         2.19981       -11.81019
   C       19.13712         3.11060       -12.24106
   C       19.84141         3.00599       -13.45871
   N       20.44729         2.98408       -14.43342
   C       19.54090         4.26008       -11.53144
   N       19.92142         5.21107       -11.01202
   C       17.81198         0.98872       -12.51896
   C       16.91017         0.25294       -11.69701
   C       16.35195        -0.92326       -12.10784
   C       16.68299        -1.43120       -13.38335
   C       16.14177        -2.64072       -13.86101
   C       16.47936        -3.11728       -15.09875
   C       17.37116        -2.40380       -15.91366
   C       17.91211        -1.22355       -15.48091
   C       17.58821        -0.70494       -14.21068
   C       18.14503         0.51412       -13.76007
   C       16.70320         0.96961       -10.43184
   O       16.04558         0.59109        -9.48226
   H       19.72956        -7.09200        11.15932
   H       21.78575        -5.89926        10.51544
   H       21.84058        -4.53555         8.46555
   H       19.83955        -4.35599         7.04040
   H       17.51906        -4.89417         6.58758
   H       17.36262        -7.66331        10.73391
   H       12.34920        -7.30232         9.18465
   H        9.97110        -6.82467         7.89871
   H       10.85426        -2.94812         6.21251
   H       15.88531        -1.74470         6.38467
   H       14.15331        -4.33724         9.36985
   H       12.59810        -3.27893         4.81889
   H       14.69611        -1.08808         4.42457
   H       14.46898         0.19640         2.51992
   H       14.62721         2.23602        -1.10601
   H       14.08004         3.91215         0.77423
   H       12.76689         2.78512         1.20786
   H       13.07348         4.29512        -1.25471
   H       11.72520         4.06131        -0.34613
   H       16.08869         0.96046         0.59462
   H       15.28333         1.94864         1.83996
   H       16.71481         3.09117        -0.42634
   H       17.17119         3.12076         1.14869
   H       12.92904         2.04463        -2.63382
   H       10.64722         1.33828        -3.47478
   H       10.23664        -1.13695        -3.92059
   H       10.66873        -2.36374        -1.83495
   H       11.34399        -3.14238         0.54586
   H       12.23719        -3.45023         2.79698
   H       12.84030        -0.13363        -5.02550
   H       11.17768         2.39614        -5.47332
   H       11.77135         0.03706        -8.12229
   H       14.27145         3.30458        -9.43461
   H       16.23561         6.06669        -5.54992
   H       12.92566         3.45063        -4.66749
   H       16.80105         5.34575        -8.07338
   H       16.06631         2.37599        -8.28658
   H       17.85682         4.23339        -9.95731
   H       15.65995        -1.45233       -11.47032
   H       15.45363        -3.18282       -13.22945
   H       16.06105        -4.04604       -15.45718
   H       17.62706        -2.79364       -16.88760
   H       18.59813        -0.67020       -16.10578
   H       18.81755         1.04595       -14.41470
*
