# ORCA input file
# SCF done        -31.853790676630          0.000022647149
! B3LYP/G D3BJ Opt RIJCOSX def2-SVP def2/J
* xyz 0 1
   C       -1.23923        -1.24083         0.00180
   C        0.00114        -0.69432        -0.00143
   C        1.40623        -1.14072        -0.00546
   O        1.87571        -2.24893        -0.00713
   N        2.14854         0.03749        -0.00714
   C        3.59061         0.05317        -0.01116
   C        1.38589         1.20256        -0.00461
   O        1.83812         2.31748        -0.00549
   C       -0.01208         0.73210        -0.00091
   C       -1.26237         1.25515         0.00271
   S       -2.44508        -0.00411         0.00554
   H       -1.52774        -2.27265         0.00223
   H        3.93399        -0.97976        -0.01181
   H        3.96118         0.57072         0.87444
   H        3.95630         0.57015        -0.89914
   H       -1.57035         2.28131         0.00390
*
