# ORCA input file
# SCF done        -49.702549868511          0.000800260601
! B3LYP/G D3BJ Opt RIJCOSX def2-SVP def2/J
* xyz 0 1
   C       -1.19264         0.06534        -0.33097
   C       -0.39882         1.19369        -0.18365
   C        0.97548         1.07289        -0.38731
   C        1.80357         2.21459        -0.24060
   N        2.46514         3.14046        -0.12003
   C        1.55786        -0.16229        -0.73588
   C        2.95702        -0.25075        -0.93741
   N        4.08640        -0.34136        -1.10112
   C        0.75820        -1.29548        -0.88247
   C       -0.60058        -1.16605        -0.67830
   C       -1.64152        -2.21229        -0.77254
   O       -1.49634        -3.37574        -1.04844
   C       -2.93016        -1.52101        -0.44981
   C       -2.63506        -0.11118        -0.18503
   C       -3.53797         0.85804         0.13362
   C       -3.20574         2.21102         0.37858
   N       -2.99174         3.31830         0.58459
   C       -4.93060         0.64288         0.25968
   N       -6.06552         0.53442         0.37935
   C       -4.09002        -2.18240        -0.43283
   H       -0.80777         2.15556         0.08207
   H        1.18792        -2.24940        -1.14840
   H       -4.08285        -3.23683        -0.66135
   H       -5.03887        -1.73068        -0.20411
*
