# ORCA input file
# SCF done        -67.381548984271          0.000253732741
! B3LYP/G D3BJ Opt RIJCOSX def2-SVP def2/J
* xyz 0 1
   C        1.81332        -0.93479         1.58721
   C        2.09306         0.29085         0.99815
   C        1.09368         1.08136         0.44824
   C       -0.19604         0.59249         0.51501
   C       -0.47404        -0.64546         1.11256
   C        0.51773        -1.43111         1.65763
   O       -1.81772        -0.88339         1.04784
   C       -2.38334         0.16990         0.42664
   C       -3.72642         0.30704         0.19582
   C       -4.65649        -0.64782         0.61669
   C       -6.02590        -0.61389         0.53625
   C       -6.96719         0.42423         0.20734
   C       -6.80394         1.78507         0.31802
   C       -5.66693         2.43338         0.83397
   N       -4.78747         3.03351         1.26820
   C       -7.80401         2.72956         0.01112
   N       -8.55931         3.55945        -0.23558
   C       -8.25155        -0.22818        -0.07208
   C       -8.15195        -1.58929         0.26530
   C       -6.77274        -1.87960         0.71088
   O       -6.32973        -2.93913         1.10260
   C       -9.22601        -2.44720         0.14217
   C      -10.42398        -1.93539        -0.33781
   C      -10.52566        -0.59776        -0.68821
   C       -9.44842         0.27030        -0.55907
   N       -1.41460         1.07208         0.08336
   H        2.62010        -1.51785         2.00221
   H        3.11333         0.63986         0.96601
   H        1.31216         2.03307        -0.00788
   H        0.29160        -2.37985         2.11401
   H       -4.04019         1.19753        -0.32046
   H       -4.25334        -1.57774         1.00419
   H       -9.12277        -3.48590         0.41646
   H      -11.28192        -2.58266        -0.44271
   H      -11.46156        -0.21740        -1.06979
   H       -9.55560         1.30372        -0.84599
   H       -1.59944         1.97200        -0.32347
*
