# ORCA input file
# SCF done        -55.464543956037          0.000685293459
! B3LYP/G D3BJ Opt RIJCOSX def2-SVP def2/J
* xyz 0 1
   C       -0.82279        -1.41482         0.07302
   C        0.02747        -0.31393         0.07624
   C       -0.41169         1.01720         0.62376
   O        0.35995         1.76638         1.14877
   O       -1.70889         1.31563         0.50673
   C        1.35585        -0.43629        -0.36977
   C        2.23446         0.67764        -0.40405
   N        3.00843         1.51428        -0.51024
   C        1.84167        -1.66661        -0.81929
   C        0.98774        -2.74982        -0.81391
   C       -0.34811        -2.63795        -0.38324
   C       -1.01000        -3.93313        -0.49969
   C       -2.33704        -4.17991        -0.30739
   C       -3.27814        -3.17773         0.01964
   N       -4.06332        -2.37719         0.26033
   C       -2.94475        -5.44904        -0.44865
   N       -3.49488        -6.44999        -0.54466
   C        0.00085        -4.89965        -0.93175
   C        1.27238        -4.15114        -1.19566
   O        2.30165        -4.60882        -1.61998
   C       -0.07559        -6.22479        -1.07440
   H       -1.82654        -1.32825         0.46129
   H       -2.23814         0.64938         0.04715
   H        2.86184        -1.77033        -1.15658
   H       -0.95962        -6.80202        -0.86833
   H        0.80087        -6.75801        -1.40804
*
