# ORCA input file
# SCF done        -67.077833948957          0.000167089884
! B3LYP/G D3BJ Opt RIJCOSX def2-SVP def2/J
* xyz 0 1
   C        3.49905        -0.24843         0.09787
   C        2.57526        -1.22805         0.05593
   C        1.23691        -0.72969         0.03151
   C        1.20756         0.68457         0.03168
   S        2.82228         1.34627         0.10563
   C        0.03136         1.42086         0.01483
   C        0.03612         2.88825         0.10025
   C        0.79508         3.65436        -0.77978
   C        0.80964         5.03083        -0.67522
   C        0.07617         5.68212         0.31036
   C       -0.67891         4.91478         1.18721
   C       -0.70251         3.53674         1.08513
   C        0.10152         7.17687         0.40921
   C       -1.16215         0.69073        -0.05541
   C       -1.13220        -0.72347        -0.07063
   C        0.04197        -1.46007        -0.00274
   C        0.03145        -2.92835         0.06481
   C       -0.65490        -3.68461        -0.88038
   C       -0.67736        -5.06255        -0.79191
   C       -0.02455        -5.72433         0.24147
   C        0.65901        -4.96633         1.18360
   C        0.69029        -3.58775         1.09836
   C       -0.04668        -7.22017         0.32259
   S       -2.74731        -1.38520        -0.13484
   C       -3.42212         0.20982        -0.17552
   C       -2.49843         1.18943        -0.13129
   H        4.56689        -0.34835         0.11953
   H        2.81317        -2.27617         0.02877
   H        1.36317         3.16689        -1.55830
   H        1.40051         5.61273        -1.36828
   H       -1.25232         5.40035         1.96446
   H       -1.27887         2.95299         1.78864
   H        1.12685         7.54282         0.39952
   H       -0.38315         7.51589         1.32138
   H       -0.41724         7.61942        -0.44135
   H       -1.16035        -3.18885        -1.69598
   H       -1.21207        -5.63593        -1.53578
   H        1.16877        -5.46103         1.99852
   H        1.20855        -3.01156         1.85155
   H       -1.02334        -7.60712         0.03940
   H        0.18938        -7.55900         1.32847
   H        0.69120        -7.64268        -0.36047
   H       -4.48833         0.31001        -0.23809
   H       -2.73394         2.23793        -0.16410
*
