# ORCA input file
# SCF done        -30.848218434581          0.000208991951
! B3LYP/G D3BJ Opt RIJCOSX def2-SVP def2/J
* xyz 0 1
   C       -2.08377        -0.71464         0.00104
   C       -2.11817         0.66865        -0.00094
   C       -0.95194         1.42674        -0.00265
   C        0.24547         0.74033        -0.00228
   C        0.27405        -0.66115        -0.00021
   C       -0.87659        -1.41120         0.00144
   O        1.57185        -1.08778         0.00006
   C        2.36986         0.02967        -0.00158
   N        1.55690         1.15924        -0.00389
   C        1.97809         2.52801        -0.00278
   C        3.69983        -0.04476        -0.00128
   H       -3.00853        -1.27047         0.00237
   H       -3.07127         1.17571        -0.00110
   H       -0.98423         2.50461        -0.00411
   H       -0.84169        -2.48795         0.00305
   H        3.06326         2.57340        -0.00728
   H        1.60542         3.04054         0.88858
   H        1.59804         3.04362        -0.88913
   H        4.17667        -1.00359         0.00021
   H        4.32142         0.82716        -0.00261
*
