# ORCA input file
# SCF done        -56.520618544387          0.000937172532
! B3LYP/G D3BJ Opt RIJCOSX def2-SVP def2/J
* xyz 0 1
   C        0.51235         1.64522        -0.00343
   C        1.81855         1.17963        -0.00358
   C        2.08931        -0.18479        -0.00291
   C        1.06190        -1.12269        -0.00187
   C       -0.23675        -0.65355        -0.00171
   C       -0.52684         0.72394        -0.00232
   C       -1.97518         0.91632        -0.00057
   C       -2.63072         2.11057         0.00054
   C       -1.99372         3.37334        -0.00142
   N       -1.53503         4.42395        -0.00320
   C       -4.03838         2.25130         0.00381
   N       -5.16996         2.43452         0.00755
   C       -2.59152        -0.41210         0.00159
   C       -3.87712        -0.77213         0.00347
   C       -1.49327        -1.43188        -0.00126
   O       -1.62525        -2.62906        -0.00040
   C        3.50884        -0.68873        -0.00238
   F        4.41848         0.29194        -0.00992
   F        3.76751        -1.44585         1.07707
   F        3.76398        -1.45927        -1.07300
   H        0.32732         2.70667        -0.00367
   H        2.63575         1.88455        -0.00418
   H        1.26469        -2.18284        -0.00178
   H       -4.69846        -0.07779        -0.00003
   H       -4.11498        -1.82449        -0.00050
*
