# ORCA input file
# SCF done        -36.391789100676          0.000097765018
! B3LYP/G D3BJ Opt RIJCOSX def2-SVP def2/J
* xyz 0 1
   C        3.38460        -0.21627        -0.00004
   C        2.44638        -1.23044        -0.00001
   C        1.10574        -0.87128        -0.00003
   C        0.71160         0.48758        -0.00007
   C        1.67429         1.48836        -0.00009
   C        3.00612         1.12479        -0.00008
   C       -0.72325         0.48907        -0.00011
   C       -1.12613        -0.86956        -0.00009
   N       -0.01062        -1.67230        -0.00002
   C        0.02451        -3.10646         0.00008
   C       -2.47225        -1.20973        -0.00016
   C       -3.40071        -0.18693        -0.00023
   C       -3.01147         1.15063        -0.00023
   C       -1.67602         1.49908        -0.00017
   H        4.43521        -0.46778        -0.00003
   H        2.75110        -2.26624         0.00002
   H        1.38300         2.52804        -0.00013
   H        3.77055         1.88772        -0.00009
   H       -0.99019        -3.49661         0.00020
   H        0.54346        -3.47800         0.88823
   H        0.54331        -3.47815        -0.88809
   H       -2.79799        -2.23962        -0.00016
   H       -4.45320        -0.43038        -0.00029
   H       -3.76861         1.92064        -0.00029
   H       -1.37257         2.53527        -0.00018
*
