# ORCA input file
# SCF done        -36.367040016388          0.000453709822
! B3LYP/G D3BJ Opt RIJCOSX def2-SVP def2/J
* xyz 0 1
   C        2.15557        -0.56282         0.04903
   C        2.20564         0.83195        -0.13899
   C        1.09253         1.63160        -0.23539
   C       -0.19553         1.05548        -0.14545
   C       -0.22472        -0.32648         0.04218
   C        0.91607        -1.15008         0.14152
   N        0.47302        -2.44114         0.31938
   C        1.29979        -3.60205         0.47334
   C       -0.92458        -2.48055         0.34486
   C       -1.38723        -1.10349         0.15933
   C       -2.60458        -0.47002         0.08269
   C       -2.61015         0.92272        -0.10679
   C       -1.46193         1.67408        -0.21806
   C       -1.66856        -3.58014         0.51209
   H        3.07561        -1.12392         0.11500
   H        3.18263         1.28963        -0.21014
   H        1.19679         2.69663        -0.37911
   H        1.07699        -4.34158        -0.30198
   H        1.14332        -4.06585         1.45262
   H        2.34394        -3.30992         0.38762
   H       -3.53753        -1.00706         0.16327
   H       -3.56699         1.42264        -0.16721
   H       -1.52700         2.74303        -0.36238
   H       -1.24180        -4.55723         0.64476
   H       -2.73993        -3.51022         0.51611
*
