# ORCA input file
# SCF done        -32.258598875806          0.000295717816
! B3LYP/G D3BJ Opt RIJCOSX def2-SVP def2/J
* xyz 0 1
   C        3.01848        -0.59608         0.00308
   C        2.55490         0.67891         0.00320
   C        1.14608         0.71626         0.00306
   C        0.56025        -0.54537         0.00281
   S        1.75983        -1.78896         0.00275
   C       -0.84338        -0.47157         0.00265
   C       -1.30929         0.84859         0.00277
   S       -0.01832         2.01820         0.00308
   C       -2.71208         0.80299         0.00253
   C       -3.04130        -0.53124         0.00226
   N       -1.91737        -1.30414         0.00231
   C       -1.85443        -2.73757         0.00229
   H        4.03654        -0.93031         0.00317
   H        3.18329         1.55023         0.00341
   H       -3.39096         1.63083         0.00254
   H       -4.01364        -0.98411         0.00201
   H       -2.86428        -3.14348         0.00144
   H       -1.32447        -3.09651         0.88793
   H       -1.32302        -3.09638        -0.88252
*
