# ORCA input file
# SCF done        -75.974807895938          0.000409593224
! B3LYP/G D3BJ Opt RIJCOSX def2-SVP def2/J
* xyz 0 1
   C        1.49495         2.19269         0.28523
   C        2.05986         0.99547         0.69227
   C        1.30086        -0.16801         0.73731
   C       -0.02436        -0.10304         0.37340
   C       -0.58618         1.10555        -0.04633
   C        0.16162         2.26883        -0.09135
   N       -1.93082         0.91609        -0.35225
   C       -2.30676        -0.36055        -0.09185
   C       -3.55641        -0.91871        -0.16330
   C       -4.78382        -0.26456        -0.31160
   C       -6.03556        -0.82309        -0.42636
   C       -6.50117        -2.16057        -0.67139
   C       -5.83404        -3.18305        -1.30417
   C       -4.56896        -3.06561        -1.90853
   N       -3.56012        -3.03120        -2.45872
   C       -6.37480        -4.46526        -1.52289
   N       -6.74234        -5.53648        -1.71639
   C       -7.92207        -2.19824        -0.30690
   C       -8.35564        -0.88801        -0.03710
   C       -7.20693         0.03411        -0.15005
   O       -7.20615         1.24188        -0.01353
   C       -9.66573        -0.61293         0.29819
   C      -10.56008        -1.67213         0.37585
   C      -10.13682        -2.96842         0.12562
   C       -8.82031        -3.24831        -0.22039
   C       -1.08198        -1.17060         0.30094
   C       -0.73629        -2.17116        -0.81263
   C       -1.26959        -1.89137         1.63717
   C       -2.71892         1.93475        -0.98928
   H        2.09932         3.08685         0.26231
   H        3.09916         0.96659         0.98113
   H        1.74409        -1.09916         1.05531
   H       -0.26444         3.21222        -0.39487
   H       -3.58877        -1.98837        -0.02177
   H       -4.81958         0.80997        -0.18875
   H       -9.97266         0.40343         0.49256
   H      -11.59157        -1.48688         0.63604
   H      -10.84303        -3.78205         0.19950
   H       -8.51873        -4.26669        -0.40447
   H       -0.52772        -1.64461        -1.74112
   H       -1.56374        -2.85236        -0.99158
   H        0.14421        -2.74374        -0.53296
   H       -1.55415        -1.18505         2.41419
   H       -0.34010        -2.37271         1.92965
   H       -2.04069        -2.65267         1.55783
   H       -2.05579         2.59427        -1.54907
   H       -3.27297         2.53374        -0.26216
   H       -3.41979         1.47476        -1.68582
*
