# ORCA input file
# SCF done        -40.438315125104          0.000423880920
! B3LYP/G D3BJ Opt RIJCOSX def2-SVP def2/J
* xyz 0 1
   C        0.18010        -1.43594        -0.16040
   C       -0.98609        -0.68255        -0.13560
   C       -0.94699         0.74720         0.02532
   N       -2.10735         1.45570         0.04863
   C       -3.23442         0.82150        -0.07341
   C       -3.27349        -0.60957        -0.23570
   N       -2.18296        -1.31478        -0.26451
   C       -4.57013        -1.33405        -0.37532
   C       -4.48949         1.62740        -0.03933
   C        0.25829         1.42330         0.16074
   C        1.42850         0.67551         0.13815
   C        1.38901        -0.76602        -0.02373
   N        2.62056        -1.29823        -0.01762
   S        3.68525        -0.12028         0.16905
   N        2.68682         1.12598         0.25400
   H        0.13723        -2.50553        -0.28036
   H       -5.11710        -0.97123        -1.24424
   H       -5.19137        -1.17294         0.50449
   H       -4.37625        -2.39660        -0.48930
   H       -4.23824         2.67617         0.08946
   H       -5.12520         1.30447         0.78368
   H       -5.04765         1.50065        -0.96567
   H        0.27396         2.49364         0.28064
*
