# ORCA input file
# SCF done        -42.546006700187          0.000308046070
! B3LYP/G D3BJ Opt RIJCOSX def2-SVP def2/J
* xyz 0 1
   C        0.24059        -1.44549        -0.05026
   C       -0.94039        -0.71758        -0.03047
   C       -0.93170         0.72162         0.06721
   N       -2.10845         1.40571         0.08201
   C       -3.20296         0.73526         0.00575
   C       -3.21160        -0.69551        -0.09128
   N       -2.12529        -1.38321        -0.10719
   F       -4.36836        -1.34638        -0.16795
   F       -4.35175         1.40440         0.01852
   C        0.25796         1.43128         0.14504
   C        1.44471         0.70809         0.12319
   C        1.43597        -0.74031         0.02483
   N        2.68024        -1.24069         0.01790
   S        3.71940        -0.03316         0.12241
   N        2.69492         1.18980         0.18288
   H        0.22016        -2.51958        -0.12302
   H        0.25050         2.50551         0.21807
*
