# ORCA input file
# SCF done        -19.316691732546          0.000167010087
! B3LYP/G D3BJ Opt RIJCOSX def2-SVP def2/J
* xyz 0 1
   C       -0.76630         1.14084        -0.00573
   C        0.61638         1.22094         0.00543
   C        1.36505         0.05570         0.00144
   C        0.74279        -1.17683        -0.01493
   C       -0.64942        -1.26544        -0.02528
   C       -1.39683        -0.08748        -0.02210
   N       -1.27589        -2.49551         0.03265
   H       -1.35976         2.04385        -0.00554
   H        1.10612         2.18291         0.01439
   H        2.44439         0.10703         0.00694
   H        1.32998        -2.08470        -0.01883
   H       -2.47637        -0.14676        -0.03136
   H       -0.72841        -3.28845        -0.26023
   H       -2.23758        -2.52007        -0.26532
*
