# ORCA input file
# SCF done        -43.114258671249          0.000957126598
! B3LYP/G D3BJ Opt RIJCOSX def2-SVP def2/J
* xyz 0 1
   C        0.16536        -1.44361        -0.06975
   C       -1.01332        -0.70492        -0.06901
   C       -0.99298         0.73812         0.02961
   N       -2.15238         1.43331         0.02605
   C       -3.27358         0.77686        -0.06788
   C       -3.29397        -0.66616        -0.16530
   N       -2.19180        -1.36046        -0.16364
   C       -4.54147        -1.33592        -0.26507
   N       -5.56649        -1.84024        -0.34345
   C       -4.50149         1.48889        -0.07572
   N       -5.51195         2.02777        -0.08421
   C        0.20593         1.43664         0.12774
   C        1.38263         0.70160         0.12600
   C        1.36221        -0.74847         0.02640
   N        2.60369        -1.25868         0.04171
   S        3.64976        -0.06166         0.16563
   N        2.63789         1.16993         0.20851
   H        0.13540        -2.51782        -0.14381
   H        0.20623         2.51133         0.20094
*
