# ORCA input file
# SCF done        -34.880758534877          0.000453536999
! B3LYP/G D3BJ Opt RIJCOSX def2-SVP def2/J
* xyz 0 1
   C       -1.28308         0.50208        -0.56415
   C       -0.20575         1.28102        -0.27630
   C        0.94613         0.52846         0.01625
   C        0.70531        -0.82897        -0.05936
   S       -0.92685        -1.18303        -0.48813
   C        1.78910        -1.71469         0.21777
   C        3.01015        -1.15772         0.54246
  Ge        2.83148         0.80222         0.51125
   C        3.07685         1.65622         2.28740
   C        3.91343         1.68465        -0.90155
   C        3.98314        -2.14175         0.79454
   C        3.49872        -3.40586         0.66062
   S        1.83254        -3.43826         0.22022
   H       -2.27857         0.80845        -0.82001
   H       -0.23552         2.35698        -0.27335
   H        2.75727         2.69353         2.25283
   H        4.12261         1.62658         2.57710
   H        2.49205         1.13684         3.03983
   H        3.72596         1.22280        -1.86545
   H        4.97110         1.59699        -0.67350
   H        3.66041         2.73829        -0.96498
   H        5.00157        -1.92272         1.06547
   H        4.01654        -4.33566         0.79363
*
