# ORCA input file
# SCF done        -69.729787231027          0.000876414759
! B3LYP/G D3BJ Opt RIJCOSX def2-SVP def2/J
* xyz 0 1
   C       -2.61625        -1.45792         0.16789
   C       -2.59063        -0.10910         0.49764
   C       -1.39745         0.58025         0.61468
   C       -0.20442        -0.09852         0.39185
   C       -0.24443        -1.46192         0.06944
   C       -1.43714        -2.14978        -0.04718
   S        1.37227        -2.09802        -0.13909
   C        2.05047        -0.53121         0.24082
   C        3.40174        -0.28134         0.29328
   C        4.36235        -1.22986        -0.04583
   C        5.72620        -1.06775        -0.13326
   C        6.57608         0.08943        -0.13002
   C        6.25533         1.38860        -0.45940
   C        5.00755         1.83702        -0.92123
   N        4.02156         2.27458        -1.32394
   C        7.17734         2.45458        -0.46154
   N        7.85833         3.38017        -0.46820
   C        7.94894        -0.38154         0.09391
   C        7.96159        -1.78611         0.03824
   C        6.58013        -2.27520        -0.15679
   O        6.21179        -3.42531        -0.27722
   C        9.12918        -2.50742         0.18073
   C       10.31046        -1.80954         0.39509
   C       10.30388        -0.42536         0.46870
   C        9.13072         0.30439         0.31750
   N        1.07942         0.39650         0.45663
   C        1.39951         1.79228         0.62705
   H       -3.55999        -1.97269         0.08277
   H       -3.51816         0.41477         0.66955
   H       -1.40350         1.62432         0.88378
   H       -1.43762        -3.19814        -0.29803
   H        3.72123         0.69468         0.61444
   H        4.02156        -2.24819        -0.21114
   H        9.10956        -3.58511         0.12535
   H       11.23991        -2.34728         0.50923
   H       11.22895         0.10257         0.64669
   H        9.15708         1.37971         0.38602
   H        2.14842         2.09475        -0.11140
   H        1.79077         1.98146         1.62846
   H        0.50430         2.38856         0.47750
*
