# ORCA input file
# SCF done        -39.268069183622          0.000560204721
! B3LYP/G D3BJ Opt RIJCOSX def2-SVP def2/J
* xyz 0 1
   C       -3.42592         0.12040        -0.00160
   C       -2.98762        -1.19466        -0.00750
   C       -1.63385        -1.49008        -0.00791
   C       -0.72685        -0.44356        -0.00211
   C       -1.17043         0.88679         0.00461
   C       -2.51882         1.17189         0.00470
   C        0.00121         1.84262         0.01235
   C        0.00184         2.72841        -1.23765
   C        0.00118         2.70416         1.27953
   C        1.17230         0.88611         0.00491
   C        2.52086         1.17046         0.00508
   C        3.42736         0.11847        -0.00162
   C        2.98834        -1.19634        -0.00802
   C        1.63440        -1.49100        -0.00837
   C        0.72798        -0.44397        -0.00210
   H       -4.48580         0.32998        -0.00175
   H       -3.71080        -1.99749        -0.01192
   H       -1.29444        -2.51536        -0.01266
   H       -2.87227         2.19307         0.00954
   H       -0.88122         3.36303        -1.25121
   H        0.00124         2.11253        -2.13460
   H        0.88599         3.36149        -1.25134
   H       -0.88112         3.33950         1.30417
   H        0.88623         3.33556         1.30690
   H       -0.00159         2.07080         2.16421
   H        2.87490         2.19144         0.01022
   H        4.48737         0.32747        -0.00177
   H        3.71107        -1.99957        -0.01294
   H        1.29442        -2.51610        -0.01354
*
