# ORCA input file
# SCF done        -35.208016846758          0.000355924099
! B3LYP/G D3BJ Opt RIJCOSX def2-SVP def2/J
* xyz 0 1
   C       -1.26288        -1.17326        -0.00374
   C        0.00829        -0.73756        -0.00336
   C        0.01272         0.73508        -0.00135
   N       -1.27730         1.15217        -0.00052
   C       -2.12536         0.02827        -0.00184
   O       -3.32829         0.10722        -0.00153
   C       -1.76252         2.50774         0.00130
   C        1.28571         1.16765        -0.00101
   C        2.14648        -0.03361        -0.00285
   O        3.34987        -0.11227        -0.00331
   N        1.29860        -1.15709        -0.00420
   C        1.77095        -2.51458        -0.00619
   H       -1.65676        -2.16947        -0.00505
   H       -0.91483         3.18806         0.00225
   H       -2.37631         2.68409         0.88664
   H       -2.37627         2.68653        -0.88359
   H        1.68523         2.16174         0.00027
   H        2.85981        -2.47889        -0.00792
   H        1.42202        -3.04249        -0.89574
   H        1.42498        -3.04419         0.88351
*
