# ORCA input file
# SCF done        -35.130480373795          0.000710815777
! B3LYP/G D3BJ Opt RIJCOSX def2-SVP def2/J
* xyz 0 1
   C       -1.32952         0.66661        -0.52136
   C       -0.16381         1.31666        -0.24444
   C        0.88487         0.41677         0.00107
   C        0.48432        -0.90383        -0.09798
   S       -1.18034        -1.05637        -0.49226
   C        1.60312        -1.74697         0.16264
   C        2.70908        -0.95771         0.42413
   C        2.35329         0.50914         0.34652
   C        2.56584         1.20503         1.69386
   C        3.14117         1.21873        -0.75805
   C        3.85882        -1.71597         0.69441
   C        3.60467        -3.05383         0.63263
   S        1.96039        -3.42483         0.24482
   H       -2.28649         1.09392        -0.74644
   H       -0.07586         2.38813        -0.22132
   H        2.20718         2.23017         1.64643
   H        3.62269         1.21423         1.94847
   H        2.02303         0.68195         2.47768
   H        2.98091         0.72248        -1.71264
   H        4.20438         1.20178        -0.53016
   H        2.81630         2.25298        -0.84370
   H        4.82717        -1.30835         0.92364
   H        4.28802        -3.86394         0.79314
*
