# ORCA input file
# SCF done        -28.743007740258          0.000338452713
! B3LYP/G D3BJ Opt RIJCOSX def2-SVP def2/J
* xyz 0 1
   C        0.98663         1.48478         0.00272
   C       -0.11346         0.68945         0.00233
   C        0.18977        -0.71006        -0.00047
   C       -1.01474        -1.47893        -0.00069
   C       -2.15445        -0.75301         0.00172
   S       -1.83197         0.98066         0.00449
   C       -3.55313        -1.25094         0.00206
   F       -1.00567        -2.82640        -0.00306
   C        1.53366        -0.94639        -0.00218
   S        2.41935         0.52694        -0.00036
   H        1.05199         2.55291         0.00458
   H       -3.55588        -2.33861         0.00225
   H       -4.08502        -0.89259        -0.87895
   H       -4.08474        -0.89216         0.88304
   H        2.04976        -1.88443        -0.00437
*
