# ORCA input file
# SCF done        -33.667089557727          0.000754362665
! B3LYP/G D3BJ Opt RIJCOSX def2-SVP def2/J
* xyz 0 1
   C       -0.99522         0.12164         0.39240
   C       -0.14644         1.12406         0.04877
   O        0.96281         0.63381        -0.53389
   C        0.84511        -0.69287        -0.55240
   C       -0.35090        -1.08712        -0.00609
   C       -0.76511        -2.48945         0.14209
   O        0.05727        -3.38513         0.22572
   C       -2.19549        -2.79212         0.16397
   C       -2.73099        -4.02067         0.46881
   C       -4.12911        -4.05944         0.35457
   C       -4.64822        -2.86729        -0.05354
   S       -3.44447        -1.67491        -0.29065
   H       -1.93619         0.22434         0.89078
   H       -0.21366         2.18782         0.16172
   H        1.63584        -1.27086        -0.98798
   H       -2.11688        -4.85064         0.76836
   H       -4.72518        -4.93084         0.55821
   H       -5.67617        -2.61771        -0.22935
*
