# ORCA input file
# SCF done        -23.888568006529          0.000281372279
! B3LYP/G D3BJ Opt RIJCOSX def2-SVP def2/J
* xyz 0 1
   C       -0.93181        -1.43557         0.00040
   C       -2.10044        -0.73232         0.00021
   C       -2.11554         0.68177         0.00010
   C       -0.96220         1.40982         0.00018
   C        0.26903         0.72216         0.00039
   C        0.28445        -0.72177         0.00050
   N        1.49954        -1.25928         0.00066
  Se        2.68575         0.02592         0.00098
   N        1.47237         1.28549         0.00046
   H       -0.90802        -2.51376         0.00047
   H       -3.04368        -1.25812         0.00011
   H       -3.06979         1.18731        -0.00008
   H       -0.96144         2.48827         0.00009
*
