# ORCA input file
# SCF done        -38.611198648284          0.000739560680
! B3LYP/G D3BJ Opt RIJCOSX def2-SVP def2/J
* xyz 0 1
   C        1.35445        -1.33527        -0.00129
   O        1.75884        -2.47218        -0.00172
   C       -0.01147        -0.83192         0.00059
   C       -0.04207         0.56126         0.00209
   C       -1.35490         1.07397         0.00336
   C       -2.27100         0.06479         0.00256
   S       -1.57782        -1.51397         0.00070
   C        1.30640         1.07828         0.00131
   C        1.65755         2.39638         0.00480
   C        0.69016         3.42613         0.01124
   N       -0.08280         4.27306         0.01656
   C        2.98391         2.87816         0.00580
   N        4.04011         3.32573         0.00636
   C        2.20043        -0.08670        -0.00166
   C        3.53173        -0.14232        -0.00598
   H       -1.61137         2.11694         0.00440
   H       -3.33937         0.16071         0.00288
   H        4.16443         0.72774        -0.00889
   H        4.01107        -1.10826        -0.01012
*
