# ORCA input file
# SCF done        -34.088336711618          0.000254451741
! B3LYP/G D3BJ Opt RIJCOSX def2-SVP def2/J
* xyz 0 1
   C        0.24635        -1.45911        -0.06023
   C       -0.93975        -0.73406        -0.03652
   C       -0.93201         0.70444         0.06844
   N       -2.10494         1.39209         0.08863
   C       -3.20548         0.71065         0.00975
   C       -3.21311        -0.70736        -0.09371
   N       -2.11998        -1.40477        -0.11544
   C        0.26179         1.41251         0.14930
   C        1.44781         0.69228         0.12439
   C        1.44002        -0.75562         0.01875
   N        2.68546        -1.25642         0.01033
   S        3.72339        -0.04758         0.12151
   N        2.69855         1.17563         0.18780
   H        0.22709        -2.53326        -0.13859
   H       -4.13032         1.27210         0.02624
   H       -4.14391        -1.25533        -0.15816
   H        0.25409         2.48680         0.22773
*
