# ORCA input file
# SCF done        -40.601872772314          0.000482516269
! B3LYP/G D3BJ Opt RIJCOSX def2-SVP def2/J
* xyz 0 1
   C        2.71927        -1.22197        -0.00154
   C        1.44015        -0.71260        -0.00138
   C        1.43138         0.73957        -0.00099
   N        0.27444         1.42403        -0.00080
   C       -0.82795         0.71954        -0.00099
   C       -2.10825         1.47952        -0.00082
   O       -2.15272         2.68920        -0.00034
   C       -3.33066         0.65232        -0.00128
   C       -3.32260        -0.68288        -0.00160
   C       -2.09029        -1.49525        -0.00153
   O       -2.12013        -2.70538        -0.00159
   C       -0.81926        -0.71986        -0.00135
   N        0.29156        -1.41098        -0.00155
   C        2.70425         1.26435        -0.00086
   S        3.87711         0.02823        -0.00120
   H        3.01592        -2.25101        -0.00182
   H       -4.25742         1.21072        -0.00131
   H       -4.24255        -1.25243        -0.00189
   H        2.98848         2.29689        -0.00057
*
