# ORCA input file
# SCF done        -35.138850689834          0.000860777913
! B3LYP/G D3BJ Opt RIJCOSX def2-SVP def2/J
* xyz 0 1
   C       -2.19449         1.88505        -2.02452
   C       -0.78381         2.06601        -2.02810
   C       -0.60593         3.48518        -1.94679
   C        0.80474         3.66601        -1.94531
   N        1.43963         2.47814        -2.01814
   C        0.49613         1.52103        -2.06901
   O        1.43239         4.81678        -1.87714
   C        2.85050         4.76102        -1.89021
   C       -1.88578         4.03041        -1.90616
   N       -2.82924         3.07310        -1.95235
   O       -2.82275         0.73408        -2.08338
   C       -4.24040         0.78945        -2.05012
   H        0.79221         0.48925        -2.13012
   H        3.19511         5.78711        -1.78211
   H        3.20399         4.33343        -2.83025
   H        3.21401         4.14176        -1.06834
   H       -2.18167         5.06243        -1.84895
   H       -4.58721        -0.23232        -2.18775
   H       -4.61453         1.43688        -2.84478
   H       -4.58077         1.18413        -1.09103
*
