# ORCA input file
# SCF done        -28.192182626057          0.000485523594
! B3LYP/G D3BJ Opt RIJCOSX def2-SVP def2/J
* xyz 0 1
   C       -0.96982         1.41325        -0.00082
   C       -2.12240         0.68109        -0.00064
   C       -2.07621        -0.72814        -0.00010
   F       -3.25523        -1.38006         0.00005
   C       -0.91805        -1.45212         0.00026
   C        0.27923        -0.71936         0.00009
   C        0.25433         0.72195        -0.00046
   N        1.48345         1.24074        -0.00055
   S        2.54753         0.04007        -0.00002
   N        1.52452        -1.19743         0.00037
   H       -0.97618         2.49071        -0.00122
   H       -3.09020         1.15753        -0.00090
   H       -0.91498        -2.52894         0.00067
*
