# ORCA input file
# SCF done        -31.561452450007          0.000601031135
! B3LYP/G D3BJ Opt RIJCOSX def2-SVP def2/J
* xyz 0 1
   C        0.74628         1.52028        -0.00006
   C        0.65811         3.00200         0.00168
   N        1.91125         0.94578        -0.00147
   N        2.08109        -0.37369        -0.00313
   C        1.09959        -1.22449        -0.00354
   C       -0.23927        -0.72654        -0.00207
   C       -0.42283         0.69951        -0.00025
   N       -1.72130         0.92822         0.00092
   O       -2.30214        -0.26724        -0.00005
   N       -1.43749        -1.27663        -0.00189
   C        1.38952        -2.68024        -0.00553
   H        1.65728         3.42626         0.00220
   H        0.10998         3.33777         0.88042
   H        0.11013         3.33980        -0.87639
   H        2.46356        -2.83765        -0.00519
   H        0.94517        -3.14348        -0.88494
   H        0.94405        -3.14618         0.87187
*
