# ORCA input file
# SCF done        -20.010188302332          0.000729740617
! B3LYP/G D3BJ Opt RIJCOSX def2-SVP def2/J
* xyz 0 1
   C        1.00211        -0.66707        -0.00823
   C        0.96418         0.66464         0.09686
   C       -0.36064         1.22444         0.25858
   S       -1.56347        -0.07225         0.26891
   C       -0.29852        -1.33320         0.05708
   O       -0.54443        -2.50344        -0.00957
   C       -0.66165         2.51740         0.38377
   H        1.88402        -1.27060        -0.13355
   H        1.82217         1.31488         0.06922
   H        0.10945         3.26908         0.37234
   H       -1.67667         2.85138         0.50225
*
