# ORCA input file
# SCF done        -57.914740137645          0.000862001058
! B3LYP/G D3BJ Opt RIJCOSX def2-SVP def2/J
* xyz 0 1
   C       -2.60268        -0.30688        -0.04667
   C       -1.54623        -1.21613        -0.61089
   O       -1.73717        -2.28650        -1.13547
   C       -0.27001        -0.53868        -0.34293
   C       -0.52467         0.73560         0.20012
   C       -1.96537         0.98797         0.21929
   C       -2.56195         2.21810         0.26277
   C       -1.87669         3.49280        -0.08920
   O       -0.70968         3.67581        -0.35659
   C       -2.93960         4.52130        -0.16133
   C       -4.17232         3.95620         0.17122
   C       -3.99377         2.52054         0.48810
   O       -4.85502         1.79650         0.94117
   C       -5.32408         4.72101         0.18742
   C       -5.21855         6.06504        -0.14513
   C       -3.99291         6.62590        -0.48027
   C       -2.83537         5.85933        -0.49472
   C        0.53327         1.48074         0.70190
   C        1.82072         0.98146         0.56986
   C        2.06719        -0.24494        -0.03320
   C        1.01496        -1.03203        -0.47578
   C       -3.83871        -0.76465         0.15472
   H       -6.27199         4.27596         0.44789
   H       -6.10244         6.68550        -0.14314
   H       -3.94055         7.67498        -0.73118
   H       -1.87775         6.28525        -0.75184
   H        0.37126         2.42272         1.19646
   H        2.64959         1.56170         0.94710
   H        3.08298        -0.59644        -0.13582
   H        1.17776        -2.00846        -0.90579
   H       -4.06627        -1.77302        -0.15653
   H       -4.61328        -0.19201         0.63163
*
