# ORCA input file
# SCF done        -44.725738003399          0.000193391247
! B3LYP/G D3BJ Opt RIJCOSX def2-SVP def2/J
* xyz 0 1
   C       -2.58285        -0.40472        -0.00194
   C       -1.47090        -1.40941        -0.00439
   O       -1.58878        -2.60928        -0.00649
   C       -0.22598        -0.61548        -0.00393
   C       -0.53718         0.75823        -0.00231
   C       -1.98284         0.93206        -0.00103
   C       -2.65734         2.11768         0.00074
   C       -2.03729         3.38769        -0.00131
   N       -1.59236         4.44481        -0.00382
   C       -4.06550         2.23891         0.00448
   N       -5.20001         2.40699         0.00805
   C        0.49518         1.68979        -0.00104
   C        1.80412         1.23953        -0.00113
   C        2.09327        -0.12325        -0.00259
   C        1.07712        -1.07150        -0.00415
  Cl        3.73489        -0.63658        -0.00218
   C       -3.86351        -0.78026        -0.00190
   H        0.29750         2.74923         0.00016
   H        2.61526         1.95063         0.00007
   H        1.28897        -2.12901        -0.00532
   H       -4.08994        -1.83499        -0.00340
   H       -4.69234        -0.09498        -0.00046
*
