# ORCA input file
# SCF done        -40.675694607491          0.000350221643
! B3LYP/G D3BJ Opt RIJCOSX def2-SVP def2/J
* xyz 0 1
   C        0.49396         1.70375        -0.00012
   C        1.80538         1.25154         0.00112
   C        2.10590        -0.10464         0.00277
   C        1.09118        -1.04982         0.00316
   C       -0.21824        -0.60569         0.00195
   C       -0.53180         0.76762         0.00040
   C       -1.97990         0.93758         0.00073
   C       -2.65766         2.12071         0.00117
   C       -2.04416         3.39401        -0.00145
   N       -1.60808         4.45490        -0.00417
   C       -4.06633         2.23722         0.00364
   N       -5.20124         2.40220         0.00619
   C       -2.57528        -0.40055         0.00125
   C       -1.45791        -1.40111         0.00219
   O       -1.57528        -2.60244         0.00312
   C       -3.85426        -0.78085        -0.00008
   H        0.29001         2.76205        -0.00123
   H        2.60844         1.97310         0.00090
   H        3.13744        -0.42270         0.00374
   H        1.30117        -2.10829         0.00435
   H       -4.68635        -0.09948        -0.00190
   H       -4.07600        -1.83666        -0.00016
*
