# ORCA input file
# SCF done        -24.244732921620          0.000171033748
! B3LYP/G D3BJ Opt RIJCOSX def2-SVP def2/J
* xyz 0 1
   C        2.09350        -0.69939         0.00022
   C        2.11497         0.69695        -0.00006
   C        0.95117         1.43411        -0.00000
   C       -0.26148         0.74844         0.00036
   C       -0.26554        -0.66159         0.00065
   C        0.90595        -1.40284         0.00059
   O       -1.53775        -1.12423         0.00098
   C       -2.33971        -0.03364         0.00090
   C       -1.64068         1.12446         0.00054
   H        3.02834        -1.23938         0.00016
   H        3.06829         1.20448        -0.00034
   H        0.97112         2.51334        -0.00022
   H        0.88065        -2.48087         0.00081
   H       -3.39628        -0.22160         0.00113
   H       -2.03915         2.11822         0.00042
*
