# ORCA input file
# SCF done        -44.253176401025          0.000191400486
! B3LYP/G D3BJ Opt RIJCOSX def2-SVP def2/J
* xyz 0 1
   C       -1.47296        -1.40907        -0.00110
   O       -1.58946        -2.60871        -0.00137
   C       -0.22753        -0.61538        -0.00192
   C       -0.53684         0.75867        -0.00203
   C        0.49507         1.69075        -0.00238
   C        1.80415         1.23988        -0.00231
   C        2.08662        -0.12229        -0.00201
   C        1.07517        -1.07274        -0.00192
  Br        3.89710        -0.68982        -0.00114
   C       -1.98345         0.93291        -0.00050
   C       -2.65605         2.11918         0.00086
   C       -2.03398         3.38840        -0.00203
   N       -1.58463         4.44353        -0.00514
   C       -4.06440         2.24139         0.00485
   N       -5.19877         2.40920         0.00856
   C       -2.58366        -0.40352        -0.00021
   C       -3.86452        -0.77889        -0.00061
   H        0.29920         2.75040        -0.00264
   H        2.61607         1.95083        -0.00239
   H        1.28729        -2.13068        -0.00167
   H       -4.69315        -0.09337        -0.00064
   H       -4.09111        -1.83361        -0.00112
*
