# ORCA input file
# SCF done        -37.334234944541          0.000817449267
! B3LYP/G D3BJ Opt RIJCOSX def2-SVP def2/J
* xyz 0 1
   C        3.16371        -0.41930         0.00290
   C        2.63423         0.83294         0.00293
   F        3.37672         1.94530         0.00368
   C        1.22275         0.83458         0.00210
   C        0.70517        -0.45836         0.00143
   S        1.95293        -1.65116         0.00185
   C       -0.70021        -0.45993         0.00059
   C       -1.22059         0.83190         0.00063
   S       -0.00028         2.06933         0.00170
   C       -2.63205         0.82724        -0.00023
   F       -3.37695         1.93798        -0.00038
   C       -3.15882        -0.42615        -0.00090
   S       -1.94538        -1.65539        -0.00049
   H        4.20116        -0.68468         0.00343
   H       -4.19570        -0.69375        -0.00161
*
