# ORCA input file
# SCF done        -21.704921302859          0.000348407864
! B3LYP/G D3BJ Opt RIJCOSX def2-SVP def2/J
* xyz 0 1
   C       -0.72583         1.02905         0.05507
   N        0.58452         1.19943         0.10233
   C        1.31971         0.09750         0.06215
   C        0.75569        -1.16315        -0.02431
   C       -0.64102        -1.23085        -0.06844
   N       -1.37200        -0.11323        -0.02730
   C       -1.33499        -2.50888        -0.16010
   C       -2.65788        -2.61062        -0.20330
   H       -1.33160         1.92641         0.08740
   H        2.39231         0.24161         0.10104
   H        1.36185        -2.05473        -0.05653
   H       -0.70003        -3.38446        -0.19050
   H       -3.27096        -1.72633        -0.16928
   H       -3.15594        -3.56256        -0.26890
*
