# ORCA input file
# SCF done        -51.790572561473          0.000601749695
! B3LYP/G D3BJ Opt RIJCOSX def2-SVP def2/J
* xyz 0 1
   C       -2.60070        -1.17382         0.00084
   C       -3.04336        -2.46492         0.00015
   C       -2.19825        -3.59711        -0.00076
   N       -1.55927        -4.54990        -0.00136
   C       -4.40412        -2.84560         0.00012
   N       -5.48808        -3.22054         0.00005
   C       -1.21328        -0.73588         0.00059
   C       -1.16518         0.68245         0.00150
   C        0.01800         1.38269         0.00148
   C        1.21036         0.65315         0.00046
   C        1.15380        -0.76309        -0.00052
   C       -0.03955        -1.47138        -0.00046
   S        2.74232        -1.46574        -0.00172
   C        3.45180         0.12765        -0.00087
   C        2.54685         1.13604         0.00023
  Br        5.31709         0.30855        -0.00147
   C       -2.53558         1.22220         0.00232
   O       -2.87929         2.37920         0.00319
   C       -3.43934         0.02692         0.00218
   C       -4.76771         0.15656         0.00308
   H        0.02152         2.46136         0.00220
   H       -0.03076        -2.54853        -0.00122
   H        2.80989         2.17800         0.00088
   H       -5.18647         1.15072         0.00327
   H       -5.45442        -0.67107         0.00241
*
