# ORCA input file
# SCF done        -33.148122070033          0.000659871256
! B3LYP/G D3BJ Opt RIJCOSX def2-SVP def2/J
* xyz 0 1
   C        0.90218        -0.33206         0.10336
   C        0.04805        -1.37016         0.02859
   C       -1.37882        -1.01054        -0.05787
   O       -2.34507        -1.97321        -0.06483
   C       -1.88484        -3.25018         0.32557
   C       -0.56724        -3.57904        -0.36760
   O        0.44224        -2.67618         0.03278
   C       -1.63865         0.30849        -0.13013
  Si       -0.04711         1.26368        -0.00863
   C        0.04450         2.33441         1.53030
   C        0.38206         2.26843        -1.53491
   H        1.96074        -0.51529         0.16743
   H       -1.74160        -3.27839         1.41568
   H       -2.66609        -3.95840         0.04345
   H       -0.70594        -3.52500        -1.45750
   H       -0.21528        -4.57573        -0.09471
   H       -2.65735         0.64970        -0.19441
   H       -0.16301         1.76646         2.43467
   H       -0.67303         3.15192         1.49465
   H        1.02822         2.78233         1.65223
   H        0.31463         1.67706        -2.44542
   H        1.39491         2.66243        -1.48390
   H       -0.28286         3.12073        -1.65678
*
