# ORCA input file
# SCF done        -21.115255858902          0.000585963061
! B3LYP/G D3BJ Opt RIJCOSX def2-SVP def2/J
* xyz 0 1
   O       -0.37356        -1.07752        -0.00593
   C       -1.04739         0.08517        -0.00465
   N       -0.29618         1.12866        -0.00116
   C        0.98947         0.64286        -0.00004
   C        0.91728        -0.72968        -0.00296
   C        2.15796         1.51461         0.00363
   O        3.29869         1.13160         0.00534
   H       -2.11859         0.06935        -0.00652
   H        1.66735        -1.49356        -0.00329
   H        1.89104         2.58563         0.00650
*
