# ORCA input file
# SCF done        -25.624218190424          0.000408197825
! B3LYP/G D3BJ Opt RIJCOSX def2-SVP def2/J
* xyz 0 1
   C        1.67527        -1.20151         0.27947
   C        0.41236        -0.70549         0.15856
   C        0.41361         0.68246        -0.16457
   S       -0.98654         1.71505        -0.43863
   C       -2.29792         0.69081         0.30902
   C       -2.31051        -0.70327        -0.27735
   S       -0.98714        -1.73882         0.43302
   C        1.67726         1.17712        -0.28382
   S        2.88077        -0.01274        -0.00049
   H        1.95080        -2.20694         0.52335
   H       -3.22337         1.21900         0.08003
   H       -2.15214         0.66535         1.38964
   H       -2.19422        -0.67825        -1.36125
   H       -3.23298        -1.22565        -0.02266
   H        1.95423         2.18222        -0.52752
*
