# ORCA input file
# SCF done        -33.819111879590          0.000989472868
! B3LYP/G D3BJ Opt RIJCOSX def2-SVP def2/J
* xyz 0 1
   C       -0.97554        -0.17273        -0.63430
   N       -0.29074         0.91794        -0.58716
   C        0.78722         0.66373         0.21599
   C        0.75767        -0.62340         0.64233
   N       -0.39638        -1.17599         0.11680
   C       -0.74668        -2.52023         0.23069
   O        0.05605        -3.38629         0.43920
   N       -2.10907        -2.77167         0.08451
   C       -2.64232        -4.00580        -0.24268
   C       -3.98880        -3.86763        -0.16477
   N       -4.30895        -2.59866         0.23723
   C       -3.19372        -1.96859         0.37730
   H       -1.86256        -0.31601        -1.21788
   H        1.50761         1.42851         0.42240
   H        1.40912        -1.19828         1.26620
   H       -2.00946        -4.82663        -0.50702
   H       -4.75618        -4.58900        -0.36173
   H       -3.09897        -0.95902         0.72229
*
