# ORCA input file
# SCF done        -33.818628879543          0.000729744567
! B3LYP/G D3BJ Opt RIJCOSX def2-SVP def2/J
* xyz 0 1
   C        1.03005        -0.07144         0.21736
   O        0.43442        -1.08963         0.43448
   N        0.38891         1.16066         0.10872
   C       -0.83272         1.45127         0.67903
   N       -1.22693         2.64488         0.39638
   C       -0.26762         3.18095        -0.41822
   C        0.74123         2.29263        -0.60534
   N        2.41302        -0.03449         0.05662
   C        3.31505         0.98704         0.29855
   C        4.54345         0.46690         0.04865
   N        4.43514        -0.83741        -0.34874
   C        3.17833        -1.11876        -0.32023
   H       -1.34671         0.74508         1.29869
   H       -0.37307         4.17211        -0.81026
   H        1.62446         2.34127        -1.20700
   H        3.01391         1.94577         0.66682
   H        5.50219         0.93813         0.12713
   H        2.73460        -2.05978        -0.57277
*
