# ORCA input file
# SCF done        -39.952010338237          0.000336197949
! B3LYP/G D3BJ Opt RIJCOSX def2-SVP def2/J
* xyz 0 1
   C       -0.96399         0.71726        -0.39766
   C        0.30021         1.16286        -0.15954
   C        1.22389         0.09931        -0.14968
   C        0.61806        -1.13608        -0.38448
   S       -1.06637        -0.99865        -0.61525
   C        1.62755        -2.14945        -0.35536
   C        2.85825        -1.54140        -0.10232
   C        2.65189        -0.10790         0.03679
   C        3.59796         0.84190         0.29062
   C        4.96131         0.52095         0.45685
   N        6.07142         0.26750         0.59264
   C        3.27854         2.21089         0.40588
   N        3.02658         3.32554         0.50216
   C        3.91790        -2.46848        -0.05644
   C        3.47408        -3.73733        -0.27206
   S        1.76469        -3.84004        -0.53575
   H       -1.86409         1.29507        -0.46146
   H        0.54929         2.19611        -0.00111
   H        4.94721        -2.21850         0.12456
   H        4.04978        -4.64078        -0.29443
*
