# ORCA input file
# SCF done        -32.251744073362          0.000829776744
! B3LYP/G D3BJ Opt RIJCOSX def2-SVP def2/J
* xyz 0 1
   C        3.13703        -0.21182         0.01040
   C        2.50289         0.98985         0.00762
   C        1.10289         0.82047         0.00633
   C        0.70694        -0.52651         0.00815
   S        2.07164        -1.58291         0.01148
   C       -0.69390        -0.53078         0.00634
   C       -1.10093         0.81381         0.00347
   N       -0.00171         1.63101         0.00356
   C        0.01237         3.06621         0.00085
   C       -2.50315         0.96776         0.00114
   C       -3.12566        -0.23989         0.00231
   S       -2.04819        -1.60055         0.00620
   H        4.19346        -0.39287         0.01187
   H        3.01175         1.93678         0.00654
   H       -1.01131         3.43404         0.00002
   H        0.52575         3.44369        -0.88755
   H        0.52549         3.44696         0.88798
   H       -3.02702         1.90675        -0.00122
   H       -4.18055        -0.42974         0.00110
*
