# ORCA input file
# SCF done        -33.564450201665          0.000905198721
! B3LYP/G D3BJ Opt RIJCOSX def2-SVP def2/J
* xyz 0 1
   C       -0.74243         1.20877         0.00353
   C        0.64637         1.28234        -0.08575
   N        1.21849         2.59815        -0.18074
   O        0.52700         3.53504         0.16065
   O        2.35459         2.70497        -0.59872
   C        1.43215         0.12346        -0.08612
   C        2.94019         0.13261        -0.14841
   O        3.51901        -1.10299         0.18557
   C        0.76933        -1.09797        -0.01008
   C       -0.60873        -1.17337         0.06460
   C       -1.37223        -0.01539         0.07755
   H       -1.30499         2.13005         0.00468
   H        3.34533         0.93788         0.47891
   H        3.25324         0.34215        -1.17666
   H        3.38993        -1.26938         1.12632
   H        1.36139        -2.00071        -0.02669
   H       -1.08909        -2.13881         0.11191
   H       -2.44772        -0.06859         0.13786
*
