# ORCA input file
# SCF done        -28.134392494388          0.000922858331
! B3LYP/G D3BJ Opt RIJCOSX def2-SVP def2/J
* xyz 0 1
   C       -0.46684         1.45179        -0.16187
   C        0.81130         1.12120         0.07680
   C        1.29479        -0.22376         0.20772
   C        2.63407        -0.46569         0.45329
   C        3.14904        -1.76668         0.58745
   N        3.57007        -2.82968         0.69593
   C        3.57219         0.57266         0.58550
   N        4.33908         1.42085         0.69181
   C        0.37091        -1.31451         0.07905
   C       -0.94214        -1.17704        -0.15954
   S       -1.76915         0.32971        -0.35454
   H       -0.78325         2.47835        -0.25161
   H        1.53912         1.91548         0.18001
   H        0.77457        -2.31317         0.18394
   H       -1.59801        -2.02793        -0.24774
*
