# ORCA input file
# SCF done        -50.273211869591          0.000842755208
! B3LYP/G D3BJ Opt RIJCOSX def2-SVP def2/J
* xyz 0 1
   C        1.59069        -0.77581         0.34952
   C        0.59301        -1.00123         1.44520
   O        0.83302        -0.96909         2.63076
   C       -0.68693        -1.25610         0.76812
   C       -0.50448        -1.20763        -0.61667
   C        0.88938        -0.92610        -0.92561
   C        1.44739        -0.83059        -2.16709
   C        2.81169        -0.55307        -2.41082
   N        3.90440        -0.33104        -2.67963
   C        0.74851        -1.00494        -3.38261
   N        0.24665        -1.13768        -4.40580
   C       -1.59109        -1.41215        -1.48162
   C       -2.82595        -1.66160        -0.94511
   C       -3.04144        -1.72248         0.44992
   C       -1.94852        -1.51478         1.34078
   C       -2.16673        -1.57635         2.73227
   C       -3.41805        -1.83559         3.22042
   C       -4.49781        -2.04102         2.34680
   C       -4.31534        -1.98512         0.99178
   C        2.86665        -0.48832         0.61237
   H       -1.46132        -1.37218        -2.55045
   H       -3.67104        -1.81900        -1.59971
   H       -1.33077        -1.41663         3.39463
   H       -3.58426        -1.88421         4.28610
   H       -5.47706        -2.24372         2.75434
   H       -5.14453        -2.14168         0.31713
   H        3.17704        -0.42540         1.64363
   H        3.61372        -0.31478        -0.14180
*
