# ORCA input file
# SCF done        -40.647173015081          0.000295533795
! B3LYP/G D3BJ Opt RIJCOSX def2-SVP def2/J
* xyz 0 1
   C        1.60616        -1.04534         0.66918
   O        1.05404        -1.79376         1.43644
   C        3.05850        -0.75841         0.57290
   C        3.30102         0.17798        -0.44155
   C        4.58631         0.60374        -0.72296
   C        5.63397         0.07779         0.02326
   C        5.39155        -0.86032         1.03707
   C        4.09805        -1.28281         1.31910
  Cl        6.70545        -1.49572         1.94038
  Cl        7.24190         0.58219        -0.30242
   C        2.02656         0.57378        -1.08948
   O        1.87345         1.35805        -1.99228
   C        0.96848        -0.20904        -0.38825
   C       -0.33357        -0.17342        -0.66673
   H        4.77134         1.32550        -1.50304
   H        3.90997        -2.00336         2.09944
   H       -1.03428        -0.77704        -0.11273
   H       -0.71351         0.45698        -1.45442
*
