# ORCA input file
# SCF done        -58.198642672284          0.000360849345
! B3LYP/G D3BJ Opt RIJCOSX def2-SVP def2/J
* xyz 0 1
   C       -0.30563         1.29587        -2.17940
   C        0.71316         1.73305        -1.39153
   C        1.26671         0.71339        -0.58993
   C        0.62349        -0.49832        -0.80875
   S       -0.63540        -0.38577        -1.97532
   C        1.10846        -1.60495        -0.04969
   C        2.16734        -1.33318         0.80774
  Si        2.62183         0.47624         0.67688
   C        2.34779         1.40723         2.27081
   C        1.55091         0.88510         3.29294
   C        1.34298         1.58074         4.46907
   C        1.92796         2.82231         4.65337
   C        2.72095         3.36140         3.65402
   C        2.92591         2.66160         2.48000
   C        4.32111         0.78795        -0.02898
   C        4.53529         0.86391        -1.40762
   C        5.79493         1.09376        -1.92815
   C        6.87777         1.25253        -1.07961
   C        6.69112         1.17853         0.29085
   C        5.42945         0.94884         0.80614
   C        2.56086        -2.49136         1.50969
   C        1.82077        -3.58586         1.18722
   S        0.60855        -3.24965         0.00578
   H       -0.89551         1.85620        -2.87804
   H        1.05906         2.75170        -1.38367
   H        1.09211        -0.08405         3.15644
   H        0.72349         1.15474         5.24538
   H        1.76761         3.36716         5.57239
   H        3.18076         4.32964         3.79207
   H        3.54768         3.08864         1.70568
   H        3.69431         0.74441        -2.07593
   H        5.93367         1.15185        -2.99826
   H        7.86283         1.43435        -1.48431
   H        7.53230         1.30135         0.95827
   H        5.29200         0.89501         1.87704
   H        3.36168        -2.51026         2.22775
   H        1.90641        -4.58450         1.56860
*
