# ORCA input file
# SCF done        -24.240132227056          0.000182408208
! B3LYP/G D3BJ Opt RIJCOSX def2-SVP def2/J
* xyz 0 1
   C        2.95569         0.02589         1.27056
   C        2.38834        -0.04009         0.06413
   C        3.24075        -0.10729        -1.16650
   O        4.44358        -0.10619        -1.14794
   O        2.49672        -0.16749        -2.26888
   C        3.19970        -0.23483        -3.50149
   C        0.98441        -0.05014        -0.11948
   N       -0.15251        -0.05739        -0.25703
   H        4.03061         0.03049         1.35157
   H        2.37458         0.07533         2.17560
   H        2.44167        -0.27725        -4.27872
   H        3.83052        -1.12562        -3.52894
   H        3.83060         0.64762        -3.62579
*
