# ORCA input file
# SCF done        -37.732417993632          0.000414590096
! B3LYP/G D3BJ Opt RIJCOSX def2-SVP def2/J
* xyz 0 1
   C        1.60137         1.26985        -0.00093
   C        1.96354         2.59074        -0.00141
   C        3.32523         2.96284        -0.00230
   N        4.43163         3.26474        -0.00265
   C        1.07593         3.68151        -0.00127
   N        0.40516         4.61378        -0.00158
   C        0.27257         0.69717         0.00015
   C        0.28322        -0.70904         0.00027
   C       -0.91088        -1.41652         0.00144
   C       -2.10738        -0.72295         0.00256
   C       -2.11947         0.66598         0.00247
   C       -0.93847         1.38429         0.00124
   C        1.61688        -1.28318        -0.00066
   S        2.82138         0.02185        -0.00168
   C        1.97168        -2.56697        -0.00104
   H       -0.90419        -2.49502         0.00153
   H       -3.03976        -1.26670         0.00352
   H       -3.06037         1.19410         0.00338
   H       -0.95950         2.46146         0.00125
   H        1.23715        -3.35251        -0.00097
   H        3.00509        -2.86352        -0.00232
*
