# ORCA input file
# SCF done        -25.161210206691          0.000362342453
! B3LYP/G D3BJ Opt RIJCOSX def2-SVP def2/J
* xyz 0 1
   C       -1.18066         0.02983        -0.00344
   C       -0.41275         1.16934         0.00071
   C       -0.77161         2.60255         0.00376
   O        0.04806         3.47514         0.00764
   O       -2.08780         2.88445         0.00196
   C        0.91531         0.64922         0.00158
   N        0.90030        -0.64813        -0.00165
   O       -0.39283        -1.03907        -0.00480
   H       -2.23814        -0.15703        -0.00563
   H       -2.65382         2.10362        -0.00123
   H        1.83204         1.20125         0.00447
*
