# ORCA input file
# SCF done        -37.916870610988          0.000784328457
! B3LYP/G D3BJ Opt RIJCOSX def2-SVP def2/J
* xyz 0 1
   C        2.99796        -0.91661         0.00121
   C        1.77214        -1.52595        -0.00037
   C        1.63871        -2.92760        -0.00192
   N        1.57716        -4.07136        -0.00680
   C        0.70612        -0.57641        -0.00016
   C        1.20197         0.72108         0.00169
   S        2.92340         0.80284         0.00336
   S       -0.00151         1.97111         0.00188
   C       -1.20946         0.72539        -0.00063
   C       -0.71825        -0.57386        -0.00131
   C       -1.78765        -1.51958        -0.00267
   C       -1.65915        -2.92170        -0.00195
   N       -1.60150        -4.06570        -0.00460
   C       -3.01128        -0.90587        -0.00353
   S       -2.93058         0.81330        -0.00212
   H        3.95420        -1.40234         0.00145
   H       -3.96925        -1.38818        -0.00466
*
