# ORCA input file
# SCF done        -24.474906751067          0.000588900119
! B3LYP/G D3BJ Opt RIJCOSX def2-SVP def2/J
* xyz 0 1
   C       -0.93742        -1.37077         0.00059
   N       -2.04674        -0.69072        -0.00028
   N       -2.06526         0.62937        -0.00134
   C       -0.97546         1.34028        -0.00160
   C        0.29240         0.71946        -0.00073
   C        0.31252        -0.71463         0.00042
   N        1.55505        -1.19926         0.00117
   S        2.57939         0.03437         0.00048
   N        1.52084         1.23877        -0.00080
   H       -1.01702        -2.44752         0.00142
   H       -1.08524         2.41437        -0.00249
*
