# ORCA input file
# SCF done        -43.042088174878          0.000554376270
! B3LYP/G D3BJ Opt RIJCOSX def2-SVP def2/J
* xyz 0 1
   C       -0.61426         1.22203         0.00143
   F       -1.28970         2.36081         0.00225
   C        0.78707         1.20704         0.00124
   C        1.52269         2.54101         0.00211
   O        0.93079         3.57788         0.00296
   O        2.85123         2.51327         0.00147
   C        1.40021        -0.04824         0.00031
   F        2.74358        -0.15751         0.00004
   C        0.66276        -1.22648        -0.00035
   F        1.29985        -2.39889        -0.00122
   C       -0.71954        -1.19706        -0.00012
   C       -1.34639         0.03410         0.00077
   F       -2.67849         0.08755         0.00099
   H        3.26340         1.63866         0.00073
   H       -1.29143        -2.11078        -0.00063
*
