# ORCA input file
# SCF done        -23.898119568090          0.000525124675
! B3LYP/G D3BJ Opt RIJCOSX def2-SVP def2/J
* xyz 0 1
   C        0.91396        -1.40687         0.00005
   C       -0.27942        -0.69324         0.00008
   C       -0.25930         0.72236         0.00034
   C        0.92600         1.43944         0.00056
   C        2.09778         0.70974         0.00052
   C        2.09008        -0.68704         0.00027
   N       -1.57945         1.09659         0.00030
   C       -2.30596        -0.05908         0.00004
   N       -1.58191        -1.13049        -0.00009
   H        0.90583        -2.48483        -0.00014
   H        0.93261         2.51964         0.00075
   H        3.04454         1.22930         0.00068
   H        3.03462        -1.21095         0.00025
   H       -1.93708         2.03668         0.00043
   H       -3.37948        -0.05719        -0.00005
*
