# ORCA input file
# SCF done        -32.360129205050          0.000766394304
! B3LYP/G D3BJ Opt RIJCOSX def2-SVP def2/J
* xyz 0 1
   C       -1.15939        -1.41651         0.03156
   C       -2.34464        -0.73435        -0.00294
   C       -2.36580         0.66816        -0.07621
   C       -1.20170         1.38572        -0.11415
   C        0.03318         0.71161        -0.08109
   C        0.05455        -0.70568        -0.00799
   N        1.23100        -1.37048         0.02136
   C        2.33720        -0.67687        -0.02004
   C        2.31566         0.75054        -0.09164
   N        1.18900         1.41109        -0.12008
   C        3.58011         1.54395        -0.13694
   C        3.62485        -1.43275         0.00807
   H       -1.12085        -2.49333         0.08768
   H       -3.28030        -1.27358         0.02593
   H       -3.31728         1.17901        -0.10254
   H       -1.19585         2.46324        -0.17003
   H        4.17852         1.25682        -1.00030
   H        4.17304         1.36518         0.75894
   H        3.33732         2.60074        -0.20241
   H        3.41414        -2.49588         0.08210
   H        4.23019        -1.12368         0.85906
   H        4.19641        -1.24157        -0.89936
*
