# ORCA input file
# SCF done        -27.446332867130          0.000535854136
! B3LYP/G D3BJ Opt RIJCOSX def2-SVP def2/J
* xyz 0 1
   C       -1.27902         0.13405        -0.00208
   C       -0.36946         1.16434         0.00092
   N       -0.83087         2.51121         0.00360
   O       -2.03494         2.67728         0.00364
   O       -0.02026         3.41485         0.00283
   C        0.98959         0.71373         0.00115
   C        2.22056         1.55787         0.00404
   C        1.03138        -0.64600        -0.00135
   S       -0.52435        -1.38366        -0.00424
   H       -2.34686         0.23011        -0.00291
   H        1.96948         2.61254         0.00735
   H        2.82192         1.33913        -0.87674
   H        2.82178         1.33336         0.88344
   H        1.90630        -1.26516        -0.00156
*
