# ORCA input file
# SCF done        -20.234637206244          0.000385093975
! B3LYP/G D3BJ Opt RIJCOSX def2-SVP def2/J
* xyz 0 1
   C       -0.74907         1.16442         0.00412
   C        0.60335         1.24759         0.00526
   C        1.43584         0.06888         0.00520
   O        2.65166         0.03279         0.00625
   N        0.71388        -1.12611         0.00411
   C       -0.63409        -1.21436         0.00301
   C       -1.39889        -0.09384         0.00292
   H       -1.34988         2.06243         0.00394
   H        1.11660         2.19602         0.00613
   H        1.27687        -1.96804         0.00421
   H       -1.05616        -2.20879         0.00225
   H       -2.47327        -0.15905         0.00201
*
