# ORCA input file
# SCF done        -24.802645124643          0.000697310832
! B3LYP/G D3BJ Opt RIJCOSX def2-SVP def2/J
* xyz 0 1
   C        0.68232         1.45304         0.00313
   C       -0.25963         0.46969         0.00177
   C        0.32720        -0.84852        -0.00188
   S       -0.93106        -2.04101        -0.00329
   C       -2.11500        -0.69245         0.00092
   N       -1.62356         0.48098         0.00320
   C       -3.56076        -1.00599         0.00141
   C        1.68140        -0.83880        -0.00319
   S        2.26714         0.78568         0.00008
   H        0.54315         2.51398         0.00573
   H       -3.71837        -2.08100         0.00326
   H       -4.03226        -0.57173        -0.87920
   H       -4.03242        -0.56837         0.88023
   H        2.37091        -1.65742        -0.00574
*
