# ORCA input file
# SCF done        -25.086810603297          0.000449066874
! B3LYP/G D3BJ Opt RIJCOSX def2-SVP def2/J
* xyz 0 1
   N       -1.04378         1.29541         0.00586
   C       -2.06579         0.51874         0.00462
   S       -1.74902        -1.20490         0.00038
   C       -0.07301        -0.81895         0.00104
   C        0.08681         0.56767         0.00400
   S        1.76345         0.95181         0.00429
   C        2.09411        -0.79202         0.00053
   N        1.05515        -1.55021        -0.00086
   C        3.48880        -1.28480        -0.00084
   H       -3.07461         0.87873         0.00553
   H        4.18430        -0.45048        -0.00127
   H        3.66233        -1.90308        -0.88055
   H        3.66397        -1.90335         0.87838
*
