# ORCA input file
# SCF done        -43.523873966988          0.000170963043
! B3LYP/G D3BJ Opt RIJCOSX def2-SVP def2/J
* xyz 0 1
   C       -0.42615         2.41165        -0.00148
   C       -0.92917         1.09387        -0.00109
   C       -0.00860         0.01576        -0.00007
   C        1.37614         0.27978         0.00059
   C        1.82997         1.58228         0.00010
   C        0.92412         2.64727        -0.00096
   C        2.34462        -0.83057         0.00196
   O        3.54586        -0.65329         0.00257
   N        1.80952        -2.10896         0.00283
   C        2.72939        -3.23434         0.00480
   C        0.46240        -2.43478         0.00144
   O        0.11552        -3.59802         0.00148
   C       -0.48740        -1.30998         0.00025
   C       -1.84455        -1.55515        -0.00043
   C       -2.75421        -0.49336        -0.00135
   C       -2.30949         0.80322        -0.00165
   H       -1.12675         3.23426        -0.00220
   H        2.89477         1.76035         0.00054
   H        1.29870         3.65980        -0.00133
   H        3.74317        -2.84230         0.00767
   H        2.56027        -3.84661        -0.88082
   H        2.55533        -3.84726         0.88900
   H       -2.18685        -2.57903        -0.00024
   H       -3.81303        -0.70418        -0.00184
   H       -3.01211         1.62411        -0.00232
*
