# ORCA input file
# SCF done       -194.532768676773          0.000892789555
! CAM-B3LYP def2-SVP def2/J RIJCOSX Grid4 TightSCF
%maxcore 5000
%tddft
    Mode sTDDFT
    Ethresh 5.0
    maxcore 5000
end

%pal
  nprocs 6
  end
* xyz 0 1
   C       14.07059        -4.11074       -12.69845
   C       12.76815        -4.33545       -12.74741
   C       12.15558        -5.47086       -13.50661
   C       11.78103        -3.44118       -12.04250
   N       11.04779        -2.66572       -13.02235
   C        9.86617        -2.07010       -12.82434
   C        9.11523        -2.18477       -11.69530
   C        7.82088        -1.65380       -11.46357
   C        7.00698        -2.28103       -10.48750
   C        7.32671        -3.40855        -9.59517
   O        8.34871        -4.04064        -9.46718
   N        6.16375        -3.66293        -8.84719
   C        5.12735        -2.79843        -9.18888
   O        4.01813        -2.78520        -8.72018
   C        5.68714        -1.91463       -10.24141
   C        5.06957        -0.88317       -10.92275
   C        5.87044        -0.19422       -11.82430
   C        7.20349        -0.52672       -12.08640
   C        7.87929         0.46477       -12.92724
   O        9.03547         0.56073       -13.22804
   S        6.69137         1.71887       -13.46903
   C        5.35363         0.98549       -12.54384
   O        4.23927         1.41659       -12.52562
   C        6.15469        -4.66500        -7.87859
   C        5.08763        -5.02702        -7.15905
   C        5.05958        -6.04585        -6.13194
   C        3.84181        -6.37475        -5.57741
   C        3.75097        -7.33837        -4.55360
   C        2.67004        -7.83019        -3.82943
   C        1.22197        -7.49143        -3.95360
   C        0.95721        -6.02419        -3.57268
   N        1.25674        -5.84284        -2.16173
   C        0.69067        -7.81557        -5.35922
   N        0.93908        -9.21456        -5.65752
   C        3.20506        -8.75916        -2.86286
   C        2.60410        -9.46866        -1.88957
   C        3.38574       -10.32089        -0.95245
   C        4.84821       -10.38242        -1.23379
   C        5.43374        -9.66828        -2.21578
   C        4.65785        -8.83109        -3.04844
   C        4.97726        -7.96615        -4.08217
   C        6.21082        -7.62309        -4.67541
   C        6.24660        -6.69551        -5.66858
   C        2.71062       -11.65778        -0.79086
   C        3.30098       -12.83746        -0.95176
   C        2.63688       -14.11135        -0.73264
   C        1.76536       -14.35602         0.33527
   C        1.37508       -13.49599         1.48048
   O        1.73245       -12.37252         1.74806
   N        0.50126       -14.26053         2.25241
   C        0.32307       -15.54953         1.73614
   O       -0.37565       -16.39840         2.22724
   C        1.15413       -15.60583         0.51769
   C        1.36887       -16.67218        -0.33281
   C        2.24853       -16.44937        -1.38514
   C        2.87127       -15.21123        -1.58285
   C        3.76217       -15.17238        -2.74827
   O        4.41271       -14.25835        -3.16815
   S        3.76744       -16.79387        -3.53802
   C        2.60029       -17.48844        -2.36355
   O        2.20688       -18.61667        -2.41003
   C       -0.16274       -13.86815         3.41533
   C       -0.15023       -12.64189         3.94868
   C       -0.89220       -12.32582         5.13834
   C       -1.00501       -11.11703         5.70852
   C       -0.35029        -9.86532         5.21937
   C       -1.81467       -10.95044         6.97415
   N       -0.97553       -10.72676         8.13298
   C       -0.54481        -9.46582         8.46452
   C        0.56811        -9.18713         9.13799
   H       14.77525        -4.74662       -13.20598
   H       14.48690        -3.29065       -12.13910
   H       12.90319        -6.00263       -14.08778
   H       11.37735        -5.10717       -14.17611
   H       11.69042        -6.17093       -12.81351
   H       12.29935        -2.77475       -11.34205
   H       11.07072        -4.05140       -11.47729
   H       11.55523        -2.44261       -13.86429
   H        9.50620        -1.51558       -13.67675
   H        9.47484        -2.82537       -10.90535
   H        4.04346        -0.60279       -10.75181
   H        7.12804        -5.12635        -7.78494
   H        4.14679        -4.52789        -7.33902
   H        2.95230        -5.87829        -5.93528
   H        0.66548        -8.10450        -3.23796
   H       -0.10383        -5.80008        -3.71739
   H        1.53916        -5.36171        -4.23091
   H        1.05543        -4.89093        -1.87636
   H        2.24346        -6.01664        -1.99606
   H        1.22001        -7.22410        -6.10794
   H       -0.37785        -7.53829        -5.40111
   H        0.42435        -9.81202        -5.01928
   H        0.64355        -9.43682        -6.60096
   H        1.53528        -9.43244        -1.73123
   H        3.27064        -9.85058         0.04328
   H        5.43352       -11.00366        -0.57399
   H        6.50078        -9.72356        -2.37416
   H        7.11726        -8.09810        -4.32978
   H        7.19163        -6.42782        -6.11358
   H        1.66522       -11.59758        -0.52503
   H        4.31882       -12.89660        -1.30869
   H        0.89543       -17.62974        -0.18750
   H       -0.72876       -14.68351         3.84699
   H        0.42286       -11.86185         3.47632
   H       -1.42176       -13.15834         5.58640
   H       -1.10392        -9.19290         4.80727
   H        0.39333       -10.05876         4.45416
   H        0.13130        -9.34906         6.05004
   H       -2.41635       -11.84644         7.15695
   H       -2.48796       -10.09328         6.88000
   H       -0.29228       -11.45603         8.28998
   H       -1.23875        -8.68077         8.19109
   H        1.26530        -9.95653         9.42238
   H        0.79759        -8.18455         9.44449
*
