# ORCA input file
# SCF done       -281.632532441621          0.000799341397
! CAM-B3LYP def2-SVP def2/J RIJCOSX Grid4 TightSCF
%maxcore 5000
%tddft
    Mode sTDDFT
    Ethresh 5.0
    maxcore 5000
end

%pal
  nprocs 6
  end
* xyz 0 1
   C       -9.76570         1.20415         8.01273
   C       -9.79558         1.36779         9.36906
   F      -10.23384         2.51691         9.89941
   C       -9.36816         0.33371        10.22631
   F       -9.40799         0.52316        11.55183
   C       -8.91806        -0.85106         9.71482
   C       -8.87747        -1.05108         8.32134
   C       -9.30701        -0.00563         7.45335
   C       -9.27541        -0.18274         6.05124
   C       -8.83297        -1.37130         5.53205
   C       -8.41354        -2.41116         6.40756
   C       -8.42573        -2.26816         7.76491
   C       -8.01101        -3.58468         5.61132
   O       -7.58315        -4.63498         6.04690
   C       -8.24281        -3.21842         4.20253
   C       -8.69801        -1.83922         4.15477
   C       -8.93934        -1.08122         3.03874
   C       -8.78194        -1.50200         1.70122
   N       -8.67426        -1.75905         0.58696
   C       -9.37351         0.26125         3.07594
   N       -9.72890         1.35197         3.03585
   C       -8.11269        -4.04808         3.12366
   C       -7.71290        -5.39784         3.04479
   C       -7.70822        -6.07968         1.84079
   C       -7.30385        -7.41833         1.93980
   C       -7.20209        -8.37484         0.89978
   C       -7.40629        -7.99800        -0.48137
   C       -6.97675        -6.86296        -1.11072
   C       -7.34249        -6.82235        -2.47268
   C       -8.05614        -7.90677        -2.89671
   S       -8.27373        -9.02318        -1.59257
   C       -8.59634        -8.19079        -4.24956
  Cl       -6.91736        -5.50767        -3.50011
   C       -6.87809        -9.66563         1.28805
   C       -6.57000       -10.02593         2.62752
   C       -6.61368        -9.05945         3.65298
   C       -7.01297        -7.77513         3.28396
   S       -7.20255        -6.42604         4.36649
   C       -6.25137        -9.36137         5.02272
   C       -6.80223        -8.86161         6.16946
   C       -6.16230        -9.33362         7.33455
   C       -5.11486       -10.17786         7.10324
   S       -4.91250       -10.41464         5.40189
   C       -4.23627       -10.86016         8.08693
  Cl       -6.67027        -8.87085         8.91191
   C       -6.26112       -11.40204         2.73939
   C       -6.30523       -12.08119         1.55754
   S       -6.74646       -11.03337         0.22120
   C       -6.05359       -13.47757         1.31229
   C       -6.49894       -14.08239         0.14662
   C       -6.28058       -15.42522        -0.13458
   C       -5.57579       -16.24240         0.73453
   C       -5.07664       -15.64974         1.92837
   N       -4.36258       -16.41480         2.76730
   C       -3.89802       -15.88476         3.86552
   C       -4.13925       -14.53232         4.16821
   N       -4.82893       -13.75945         3.37289
   C       -5.32088       -14.28190         2.23496
   C       -5.32134       -17.63374         0.47613
   C       -5.85330       -18.40364        -0.52229
   C       -5.38301       -19.73562        -0.53030
   C       -5.74149       -20.77090        -1.42114
   C       -6.82747       -20.60235        -2.36313
   C       -8.02652       -19.98287        -2.15050
   C       -8.85939       -20.00373        -3.28959
   C       -8.31506       -20.62575        -4.37560
   S       -6.73285       -21.21485        -3.99153
   C       -8.90319       -20.83128        -5.72289
  Cl      -10.43074       -19.29618        -3.29056
   C       -5.00890       -21.94591        -1.32158
   C       -3.97404       -22.13461        -0.36450
   C       -3.71328       -21.14673         0.61540
   C       -4.42457       -19.95674         0.48964
   S       -4.22317       -18.53505         1.48701
   C       -2.82846       -21.36852         1.73772
   C       -3.00215       -20.90737         3.01453
   C       -1.99178       -21.33341         3.90022
   C       -1.02432       -22.10987         3.33060
   S       -1.36748       -22.32069         1.64854
   C        0.14079       -22.77446         3.95945
  Cl       -1.99386       -20.90521         5.56645
   C       -3.38580       -23.40418        -0.48548
   C       -3.96084       -24.21079        -1.43735
   S       -5.24687       -23.37242        -2.28702
   C       -3.60579       -25.51991        -1.82860
   C       -2.72117       -26.39125        -1.26169
   C       -2.19486       -27.49833        -2.10869
   O       -2.65921       -27.89955        -3.14984
   C       -0.95752       -27.94585        -1.43624
   C       -0.02643       -28.84697        -1.86407
   C        1.11585       -29.08496        -1.06674
   C        1.27051       -28.37904         0.16154
   C        2.41794       -28.61252         0.94573
   C        3.36547       -29.50604         0.53169
   C        3.21034       -30.20524        -0.68193
   C        2.10912       -30.00049        -1.46514
   F        4.15614       -31.07435        -1.06358
   F        4.45564       -29.72552         1.27879
   C        0.28227       -27.46071         0.58463
   C       -0.81879       -27.25105        -0.20128
   C       -1.99677       -26.40691        -0.01019
   C       -2.42346       -25.92794         1.20296
   C       -3.70870       -25.38896         1.41810
   N       -4.75373       -24.97202         1.64365
   C       -1.64494       -25.93896         2.37472
   N       -1.03825       -25.86822         3.34807
   H      -10.09568         2.00601         7.37087
   H       -8.59499        -1.63325        10.38375
   H       -9.60860         0.62809         5.42431
   H       -8.09924        -3.07446         8.40395
   H       -8.37036        -3.63382         2.15615
   H       -8.02403        -5.61732         0.92283
   H       -6.37931        -6.10348        -0.64144
   H       -8.50175        -7.30662        -4.87485
   H       -9.64468        -8.47863        -4.19205
   H       -8.04854        -9.00985        -4.71601
   H       -7.65206        -8.20629         6.20049
   H       -4.39453       -10.43543         9.07505
   H       -3.18919       -10.74694         7.81161
   H       -4.46121       -11.92643         8.12700
   H       -6.02499       -11.89483         3.66201
   H       -7.04676       -13.48511        -0.56807
   H       -6.66278       -15.82818        -1.05901
   H       -3.32527       -16.52908         4.51727
   H       -3.75917       -14.07544         5.07172
   H       -6.54569       -18.03027        -1.25345
   H       -8.32983       -19.56761        -1.20723
   H       -9.86710       -20.33221        -5.78313
   H       -9.04320       -21.89382        -5.92031
   H       -8.24621       -20.43162        -6.49414
   H       -3.84430       -20.32286         3.33324
   H        0.28686       -22.39038         4.96582
   H        1.04416       -22.61021         3.37432
   H       -0.03446       -23.85164         4.01512
   H       -2.51923       -23.70199         0.06971
   H       -4.03123       -25.86153        -2.76755
   H       -0.15704       -29.36935        -2.79946
   H        2.55099       -28.08828         1.87916
   H        2.00517       -30.54304        -2.39168
   H        0.42713       -26.93587         1.51542
*
